 &control

     calculation = 'scf',

     restart_mode='from_scratch',

     tprnfor=.true.

     prefix='MoS2',

     outdir='./tmp',

     max_seconds = 84500

     disk_io = 'none'

     pseudo_dir = '~/pseudo/',

 /

 &system

    ibrav = 0,

    nat =  36
    ntyp = 2

    ecutwfc = 45 , ecutrho = 360,

    occupations='smearing', smearing='mv', degauss=0.02

/

  &electrons

     diagonalization='david',

     mixing_mode  =  'local-TF',

     mixing_beta = 0.7

   /

   &ions

     ion_dynamics = 'bfgs'

  /

   &cell

     cell_dynamics = 'bfgs',

   /

 ATOMIC_SPECIES

 Mo  95.5     Mo.pw91-n-van.UPF

 S   32.065   S.pw91-van_ak.UPF

K_POINTS {automatic}
  3  3  1 0 0 0
  
CELL_PARAMETERS (angstrom)
   6.690451159765604E+00   0.000000000000000E+00   0.000000000000000E+00
  -3.301777281293313E+00   5.791310916213250E+00   0.000000000000000E+00
  -2.204424053083473E-01   1.332502997860405E+00   2.475569127918849E+01
  
ATOMIC_POSITIONS (angstrom)
   Mo   1.758895582238440E+00   1.058277939451090E+00  -2.202911031399710E-01
   Mo   4.338454749341860E-02   3.968141634690340E+00   1.597724942567030E-01
   Mo   4.996483489504990E+00   1.224744847081830E+00  -6.909722289536981E-02
   Mo   3.388594043704290E+00   3.939774070346150E+00   7.279203175864980E-01
   Mo  -2.447183074096200E-01   3.466995594942590E+00   1.925838428202440E+01
   Mo  -1.619049624569820E+00   6.327689890778800E+00   1.849661205365880E+01
   Mo   3.129021146239670E+00   3.465425959532350E+00   1.910333964612950E+01
   Mo   1.682130024374650E+00   6.270439601690510E+00   1.852924963527090E+01
   Mo  -2.415323721434010E-01   1.891764591535980E+00   5.125366218459140E+00
   Mo  -1.671907979738850E+00   5.113602770329900E+00   6.216331466418390E+00
   Mo   3.275350998870590E+00   2.106266840924040E+00   5.970794936538440E+00
   Mo   1.608612946581630E+00   4.881387208070000E+00   5.676159215548880E+00
    S  -2.651496187405840E-01   2.199261598645080E+00   1.206020352059370E+00
    S  -1.629186997483740E+00   5.235691324776650E+00   1.109434577591990E+00
    S   3.338260589391950E+00   1.922097892956460E+00   1.097557534728860E+00
    S   1.732997359558300E+00   5.241890724724990E+00   1.145166718682610E+00
    S   1.391502070099270E+00   2.472593930353180E+00   1.992875201394720E+01
    S  -6.091299795645120E-01   5.481346872639000E+00   1.996933941276430E+01
    S   4.731711956854540E+00   2.590332685422410E+00   2.003548875867530E+01
    S   2.556956619235540E+00   5.292318692466400E+00   2.001054369902210E+01
    S   1.624212894643400E+00   1.383289827675570E+00   6.932986470642300E+00
    S   1.406231867127060E-01   4.991438203534840E+00   7.055787838338960E+00
    S   5.239891801831070E+00   1.915268445679780E+00   6.724443292199810E+00
    S   3.213676264779430E+00   4.263360279430410E+00   6.959961832462720E+00
    S  -2.292533865942840E-01   2.114954346399870E+00   2.357784991670900E+01
    S  -2.063601112852220E+00   4.479963894282590E+00   2.408763415462770E+01
    S   3.079909287402150E+00   1.072450682413940E+00   2.380020672252430E+01
    S   1.629748821197330E+00   4.425222342486750E+00   2.416814838402930E+01
    S   2.604143464959100E+00   2.072131081194650E+00   1.764545929506400E+01
    S   1.624483894061010E-01   5.094218928765210E+00   1.767762822439850E+01
    S   5.942817413666830E+00   2.130981121894920E+00   1.778010493925610E+01
    S   3.484615771090500E+00   5.067920541161060E+00   1.771916595399250E+01
    S   1.272662908528910E+00   5.492373236643640E-01   4.628648933351390E+00
    S  -1.624227078982250E-01   3.888162718423810E+00   4.757689062822140E+00
    S   4.710663234793520E+00   8.456636851535140E-01   4.529918548885880E+00
    S   2.809701150272150E+00   3.483280518187340E+00   4.616805073858960E+00
