 &control

     calculation = 'scf',

     restart_mode='from_scratch',

     tprnfor=.true.

     prefix='MoS2',

     outdir='./tmp',

     max_seconds = 84500

     disk_io = 'none'

     pseudo_dir = '~/pseudo/',

 /

 &system

    ibrav = 0,

    nat =  24
    ntyp = 2

    ecutwfc = 45 , ecutrho = 360,

    occupations='smearing', smearing='mv', degauss=0.02

/

  &electrons

     diagonalization='david',

     mixing_mode  =  'local-TF',

     mixing_beta = 0.7

   /

   &ions

     ion_dynamics = 'bfgs'

  /

   &cell

     cell_dynamics = 'bfgs',

   /

 ATOMIC_SPECIES

 Mo  95.5     Mo.pw91-n-van.UPF

 S   32.065   S.pw91-van_ak.UPF

K_POINTS {automatic}
  3  5  1 0 0 0
  
CELL_PARAMETERS (angstrom)
   6.788597181704081E+00   0.000000000000000E+00   0.000000000000000E+00
  -1.715493766024288E+00   2.939267519466932E+00   0.000000000000000E+00
  -1.499146842227468E+00   2.012813362012609E+00   2.334071716418026E+01
  
ATOMIC_POSITIONS (angstrom)
   Mo   5.615357582469990E-03   1.792652129168700E+00   8.747824419598761E+00
   Mo  -1.528700473268070E+00   2.649352597530040E+00   2.048433211286880E+01
   Mo   3.443875291368520E+00   1.729920529271120E+00   8.292142965659069E+00
   Mo   1.873340251633130E+00   2.653415150243250E+00   2.077134283039770E+01
   Mo  -2.771603201642900E-01  -6.361880764774640E-01   3.089196066206810E+00
   Mo  -1.284018585438620E+00   2.715143252232890E-01   1.478031225564540E+01
   Mo   3.088124734540000E+00  -6.197716532065290E-01   2.881555285442370E+00
   Mo   2.089668741584250E+00   3.051311596525910E-01   1.432194423098030E+01
    S   1.919425906412230E+00   2.607977184755280E+00   9.517478323178651E+00
    S   8.819853112908890E-02   3.602439773836920E+00   2.166375718706150E+01
    S   5.250794314980550E+00   2.744715616622260E+00   9.654232221069661E+00
    S   3.468800503301190E+00   3.634940758586280E+00   2.168119484306650E+01
    S  -2.547868014472250E-01   1.228826524501490E+00   1.951022531591380E+00
    S  -1.348990497509820E+00   2.312928851707850E+00   1.354862986456310E+01
    S   3.132674445343330E+00   1.252244024944840E+00   1.914156921555840E+00
    S   2.104177663031020E+00   2.322874611426090E+00   1.346482359043480E+01
    S  -2.687394749022940E-01   3.193372980936170E+00   3.995625185027470E+00
    S  -1.321149591885370E+00   4.277242299483770E+00   1.554550387087760E+01
    S   3.125169800725830E+00   3.190068479390250E+00   4.041852406549680E+00
    S   2.037602953987040E+00   4.235602235917860E+00   1.564893437894390E+01
    S   1.961238857370520E+00   6.954121441163650E-01   7.450624662072070E+00
    S   1.506360516254290E-01   1.680582361033370E+00   1.953852792500940E+01
    S   5.338713104620140E+00   7.402199901635260E-01   7.482770425478020E+00
    S   3.547610814161390E+00   1.707653787703630E+00   1.961503995680290E+01
