 &control

     calculation = 'scf',

     restart_mode='from_scratch',

     tprnfor=.true.

     prefix='MoS2',

     outdir='./tmp',

     max_seconds = 84500

     disk_io = 'none'

     pseudo_dir = '~/pseudo/',

 /

 &system

    ibrav = 0,

    nat =  24
    ntyp = 2

    ecutwfc = 45 , ecutrho = 360,

    occupations='smearing', smearing='mv', degauss=0.02

/

  &electrons

     diagonalization='david',

     mixing_mode  =  'local-TF',

     mixing_beta = 0.7

   /

   &ions

     ion_dynamics = 'bfgs'

  /

   &cell

     cell_dynamics = 'bfgs',

   /

 ATOMIC_SPECIES

 Mo  95.5     Mo.pw91-n-van.UPF

 S   32.065   S.pw91-van_ak.UPF

K_POINTS {automatic}
  3  3  2 0 0 0
  
CELL_PARAMETERS (angstrom)
   6.487797204362057E+00   0.000000000000000E+00   0.000000000000000E+00
  -3.447770809695215E+00   6.047493641427563E+00   0.000000000000000E+00
  -1.038825843460730E+00  -1.550004188072200E+00   1.120553490258324E+01
  
ATOMIC_POSITIONS (angstrom)
   Mo   4.032211860191650E-01   1.430791029145640E+00   3.472097989988850E+00
   Mo  -1.562368539266400E+00   4.358948962902550E+00   2.437750868446860E+00
   Mo   3.432341586990180E+00   1.443127786373810E+00   2.390094736835160E+00
   Mo   1.878422161524760E+00   4.657162014987100E+00   3.267052173334750E+00
   Mo   7.177029377828380E-02  -4.507670546277470E-01   8.315700554171910E+00
   Mo  -1.789052830854410E+00   2.573760849167170E+00   8.259468522806239E+00
   Mo   3.321602591250020E+00  -4.987649080412360E-01   8.258157937300290E+00
   Mo   1.477857636876230E+00   2.576253691023050E+00   8.422024130487291E+00
    S   6.584183966308570E-01  -8.333990507362610E-01   3.992021296438410E+00
    S  -1.215308829823270E-01   3.422111777687780E+00   3.767770882992740E+00
    S   5.043160406911330E+00   6.153077603758170E-01   4.137671308064840E+00
    S   2.212717202066760E+00   2.406521880256930E+00   4.137711422161030E+00
    S  -1.403062715094760E+00   8.029704386243410E-01   9.384912536103950E+00
    S  -3.173950416369920E+00   3.694912119267560E+00   9.433043330536570E+00
    S   1.507178022769950E+00   6.486118942994630E-01   9.089207170716470E+00
    S   8.735181741739590E-04   3.699452747525040E+00   9.258364542260271E+00
    S   1.626259811801600E+00   5.183545407329621E-01   1.914383258529200E+00
    S   4.854571812347290E-01   5.441695020140990E+00   2.075814669492250E+00
    S   5.164166524223940E+00   2.390496884047920E+00   1.674762725761890E+00
    S   2.869050881381550E+00   3.697049139945050E+00   1.681431370777060E+00
    S  -4.474894603703450E-02   2.062472927611080E+00   7.140222943471410E+00
    S  -1.703037357698970E+00   4.764156712757070E+00   7.234421737510420E+00
    S   2.975184898779980E+00   1.613858199694150E+00   7.328356345340260E+00
    S   1.455484120857060E+00   4.834233519603210E+00   7.393769074432960E+00
