 &control

     calculation = 'scf',

     restart_mode='from_scratch',

     tprnfor=.true.

     prefix='MoS2',

     outdir='./tmp',

     max_seconds = 84500

     disk_io = 'none'

     pseudo_dir = '~/pseudo/',

 /

 &system

    ibrav = 0,

    nat =  12
    ntyp = 2

    ecutwfc = 45 , ecutrho = 360,

    occupations='smearing', smearing='mv', degauss=0.02

/

  &electrons

     diagonalization='david',

     mixing_mode  =  'local-TF',

     mixing_beta = 0.7

   /

   &ions

     ion_dynamics = 'bfgs'

  /

   &cell

     cell_dynamics = 'bfgs',

   /

 ATOMIC_SPECIES

 Mo  95.5     Mo.pw91-n-van.UPF

 S   32.065   S.pw91-van_ak.UPF

K_POINTS {automatic}
  3  3  1 0 0 0
  
CELL_PARAMETERS (angstrom)
   6.380630000000000E+00   0.000000000000000E+00   0.000000000000000E+00
  -3.190316000000000E+00   5.525788000000000E+00   0.000000000000000E+00
   0.000000000000000E+00   0.000000000000000E+00   1.743950200000000E+01
  
ATOMIC_POSITIONS (angstrom)
   Mo   3.797252692555970E-02  -1.884935194244990E-02  -1.954553379425520E-01
   Mo  -1.408170354992250E+00   2.828599038948950E+00  -2.680426218296550E-02
   Mo   3.167988667956410E+00  -1.895996549064680E-01  -5.961128883716490E-02
   Mo   1.436921556547950E+00   2.850511468356700E+00  -8.535059270033020E-02
    S  -5.576160330607780E-02   1.999397807764010E+00   1.674857883087670E+00
    S  -1.587060443616080E+00   4.619817952475760E+00   1.365608747675080E+00
    S   3.068255406464940E+00   1.907050021744120E+00   1.420446832877710E+00
    S   1.397403229636830E+00   4.594405531798010E+00   1.592911007404160E+00
    S  -1.259191215542610E-02   1.906914835449490E+00   1.606334923850240E+01
    S  -1.578559299687820E+00   4.669089800564880E+00   1.568595593393840E+01
    S   3.101975108560760E+00   1.839686252281480E+00   1.569520107371670E+01
    S   1.729896555454660E+00   4.462322185617790E+00   1.591383658447840E+01
