 &control

     calculation = 'scf',

     restart_mode='from_scratch',

     tprnfor=.true.

     prefix='MoS2',

     outdir='./tmp',

     max_seconds = 84500

     disk_io = 'none'

     pseudo_dir = '~/pseudo/',

 /

 &system

    ibrav = 0,

    nat =  36
    ntyp = 2

    ecutwfc = 45 , ecutrho = 360,

    occupations='smearing', smearing='mv', degauss=0.02

/

  &electrons

     diagonalization='david',

     mixing_mode  =  'local-TF',

     mixing_beta = 0.7

   /

   &ions

     ion_dynamics = 'bfgs'

  /

   &cell

     cell_dynamics = 'bfgs',

   /

 ATOMIC_SPECIES

 Mo  95.5     Mo.pw91-n-van.UPF

 S   32.065   S.pw91-van_ak.UPF

K_POINTS {automatic}
  3  3  1 0 0 0
  
CELL_PARAMETERS (angstrom)
   6.540820199999999E+00   0.000000000000000E+00   0.000000000000000E+00
  -3.270410099999999E+00   5.664516949999999E+00   0.000000000000000E+00
   0.000000000000000E+00   0.000000000000000E+00   2.185115500000000E+01
  
ATOMIC_POSITIONS (angstrom)
   Mo   1.610928393807880E+00   9.731977970018399E-01   7.371374840713380E+00
   Mo   5.124607137114610E-02   3.692298866396630E+00   7.296458557428570E+00
   Mo   4.946944169125450E+00   1.033725224012600E+00   7.262815883061720E+00
   Mo   3.186760770767410E+00   3.787373161983660E+00   7.225164534521940E+00
   Mo   8.199216724902310E-02   1.944957526799740E+00   1.456982121100140E+01
   Mo  -1.659920034380960E+00   4.777593362820950E+00   1.464081306740930E+01
   Mo   3.317111804352430E+00   1.818858678100040E+00   1.450766862278810E+01
   Mo   1.686068136564810E+00   4.713482933401030E+00   1.464838777422180E+01
   Mo   4.127835636220630E-03   3.761789461776190E-03   2.174643826466270E+01
   Mo  -1.588807510368660E+00   2.761812765704100E+00   2.189999131975950E+01
   Mo   3.249532447403000E+00   9.315546765001650E-02   2.187605100949150E+01
   Mo   1.593144907732460E+00   2.878846656815490E+00   2.192413131412280E+01
    S  -2.699102290649230E-02   1.983210280279710E+00   1.615025259356950E+00
    S  -1.713650810870060E+00   4.756790941069510E+00   1.549303573593260E+00
    S   3.254351711039440E+00   1.897673729661570E+00   1.501304053828350E+00
    S   1.572233751189610E+00   4.752483163352940E+00   1.528784363070250E+00
    S  -8.726635948661450E-02  -1.283162905977970E-02   5.627366587445390E+00
    S  -1.557860220951610E+00   2.769076129387480E+00   5.679559020008160E+00
    S   3.181640441280840E+00   2.194698857355520E-02   5.634007100257340E+00
    S   1.629156946260340E+00   2.770057467196750E+00   5.596415748732100E+00
    S  -2.391309292605450E-04  -6.199115427979240E-04   8.783261505318970E+00
    S  -1.667496961978890E+00   2.870817129855950E+00   8.796827460292979E+00
    S   3.361327229160070E+00  -1.905815187117260E-02   8.846234137931461E+00
    S   1.629432419949750E+00   2.901981379903390E+00   8.811807263145459E+00
    S   1.640345506267900E+00   9.532764631879320E-01   1.305763781100090E+01
    S   9.845881748597821E-02   3.792929315957110E+00   1.295261702998650E+01
    S   4.958434326223130E+00   8.731674187954610E-01   1.300489468484680E+01
    S   3.209455157379760E+00   3.714443933489790E+00   1.300771869063810E+01
    S   1.640250777888920E+00   8.450822975838180E-01   1.615381817581270E+01
    S  -9.452544212904390E-02   3.744232493377700E+00   1.617275850359410E+01
    S   4.852672293542230E+00   8.599112897919460E-01   1.617753591635440E+01
    S   3.199149440526440E+00   3.834535573591400E+00   1.612778629525330E+01
    S   2.935556274074670E-02   1.980611144371240E+00   2.026628634110870E+01
    S  -1.721659007645940E+00   4.677315645939650E+00   2.026775300884510E+01
    S   3.194837716973900E+00   1.886354634574790E+00   2.030739236555490E+01
    S   1.539761958985770E+00   4.694235014057040E+00   2.022762073722840E+01
