 &control

     calculation = 'scf',

     restart_mode='from_scratch',

     tprnfor=.true.

     prefix='MoS2',

     outdir='./tmp',

     max_seconds = 84500

     disk_io = 'none'

     pseudo_dir = '~/pseudo/',
     nstep= 30

 /

 &system

    ibrav = 0,

    nat =  30
    ntyp = 2

    ecutwfc = 45 , ecutrho = 360,

    occupations='smearing', smearing='mv', degauss=0.02

/

  &electrons

     diagonalization='david',

     mixing_mode  =  'local-TF',

     mixing_beta = 0.7

   /

   &ions

     ion_dynamics = 'bfgs'

  /

   &cell

     cell_dynamics = 'bfgs',

   /

 ATOMIC_SPECIES

 Mo  95.5     Mo.pw91-n-van.UPF

 S   32.065   S.pw91-van_ak.UPF

K_POINTS {gamma}
  
CELL_PARAMETERS (angstrom)
  17.994230504  -0.039647032  -0.008412157
  -0.040917039  19.156462817  -0.015685785
   0.037537646   0.512464780  21.925947893

ATOMIC_POSITIONS (angstrom)
Mo      10.790377619   8.015897792   7.461613420
Mo       7.346776471   8.837525712  14.632873223
Mo      11.352672681   8.203129940  11.296385993
Mo       7.422936428  11.217915582  12.833178498
Mo      10.364424239  12.077831062  10.913939897
Mo       7.481990914   7.327083047  12.112157238
Mo       7.019551601  11.136887714   9.685839564
Mo       9.678343764   7.227991325  13.883619442
Mo       7.477770673   7.399952425   9.162744708
Mo       9.417716548  11.900396936   8.260208717
S        6.183571068   9.577155055  11.493027686
S        9.333540380  12.672320706  12.919273920
S       12.208704621   7.538318555   9.236373378
S        9.269680900   7.646056515  10.551302802
S        8.789444691   7.620796842  16.043183705
S        9.166222124  10.358784968   9.946252678
S        7.268408991  12.437622414   7.664028451
S        6.462261221  11.037623809  14.936423518
S        8.794458581   9.167829162  12.837210777
S       10.914227507  13.478225165   9.111181932
S        8.553833876   5.402114422  13.169341718
S        6.295482433   9.203210759   8.360565769
S        6.094755530  12.536875585  11.334521445
S       11.940978793   7.088314149  13.226462993
S        5.774664363   7.376841495  13.979156515
S        6.095841399   6.126629671  10.435770604
S       12.019544808   7.444550051   5.805006215
S       12.009330034  10.458813055  11.267160642
S       10.479357089  10.289212178   6.947903387
S        8.908114436   6.658277689   7.416624902
