 &control

     calculation = 'scf',

     restart_mode='from_scratch',

     tprnfor=.true.

     prefix='MoS2',

     outdir='./tmp',

     max_seconds = 84500

     disk_io = 'none'

     pseudo_dir = '~/pseudo/',

 /

 &system

    ibrav = 0,

    nat =  24
    ntyp = 2

    ecutwfc = 45 , ecutrho = 360,

    occupations='smearing', smearing='mv', degauss=0.02

/

  &electrons

     diagonalization='david',

     mixing_mode  =  'local-TF',

     mixing_beta = 0.7

   /

   &ions

     ion_dynamics = 'bfgs'

  /

   &cell

     cell_dynamics = 'bfgs',

   /

 ATOMIC_SPECIES

 Mo  95.5     Mo.pw91-n-van.UPF

 S   32.065   S.pw91-van_ak.UPF

K_POINTS {automatic}
  3  6  1 0 0 0
  
CELL_PARAMETERS (angstrom)
   6.487518882354193E+00   0.000000000000000E+00   0.000000000000000E+00
  -1.592328290201669E+00   2.825924891216275E+00   0.000000000000000E+00
  -1.636100328233190E+00  -4.170246245148313E+00   2.279327588291793E+01
  
ATOMIC_POSITIONS (angstrom)
   Mo  -5.110829700184230E-02  -1.301135003012950E+00   8.612218836130831E+00
   Mo  -1.581771396664390E+00  -3.773867901236760E+00   1.959300491667040E+01
   Mo   3.152031089963680E+00  -1.248398647090770E+00   8.205000896168270E+00
   Mo   1.470156089188190E+00  -4.014745161084140E+00   2.078320150494640E+01
   Mo  -2.385361299191540E-01  -3.443881997208840E-01   3.053637977018010E+00
   Mo  -1.341937470991330E+00  -2.523008208823010E+00   1.422419069150900E+01
   Mo   2.948326008816030E+00  -3.599849909617410E-01   2.732747249461490E+00
   Mo   1.920691829781660E+00  -2.539138240637350E+00   1.406224243197410E+01
    S   1.645289282167390E+00  -1.864149488961000E+00   9.555982133198860E+00
    S  -2.127177160367960E-01  -3.142174430263480E+00   2.162374553495360E+01
    S   4.663875400962650E+00  -1.468458718069000E+00   9.527304887934889E+00
    S   3.189812574145330E+00  -3.030140726683950E+00   2.092046756039520E+01
    S  -6.896784823560050E-01   1.406616353199300E+00   1.800199970761900E+00
    S  -1.248599340760570E+00  -6.180680281730589E-01   1.298976815121210E+01
    S   2.551330578656530E+00   1.373306226814610E+00   1.636460074114260E+00
    S   2.046521656241810E+00  -6.448630985959940E-01   1.293828268738610E+01
    S   1.792828552238410E-01   1.403199365893510E+00   4.083388850431610E+00
    S  -1.396206547007420E+00  -6.366389659933720E-01   1.535220304836530E+01
    S   3.483758216125410E+00   1.204276552939810E+00   3.975124131313160E+00
    S   1.844857832976080E+00  -7.011947322005210E-01   1.529381315512750E+01
    S   1.400162086057030E+00  -2.013761555888950E-01   7.331538426615420E+00
    S   4.485290377175580E-01  -2.694678731838770E+00   1.936353298237230E+01
    S   4.439625877539210E+00   1.326283894388660E-01   7.308393314107490E+00
    S   4.032448256908160E+00  -2.425491899425720E+00   1.845972021064120E+01
