 &control

     calculation = 'scf',

     restart_mode='from_scratch',

     tprnfor=.true.

     prefix='MoS2',

     outdir='./tmp',

     max_seconds = 84500

     disk_io = 'none'

     pseudo_dir = '~/pseudo/',

 /

 &system

    ibrav = 0,

    nat =  36
    ntyp = 2

    ecutwfc = 45 , ecutrho = 360,

    occupations='smearing', smearing='mv', degauss=0.02

/

  &electrons

     diagonalization='david',

     mixing_mode  =  'local-TF',

     mixing_beta = 0.7

   /

   &ions

     ion_dynamics = 'bfgs'

  /

   &cell

     cell_dynamics = 'bfgs',

   /

 ATOMIC_SPECIES

 Mo  95.5     Mo.pw91-n-van.UPF

 S   32.065   S.pw91-van_ak.UPF

K_POINTS {automatic}
  3  5  1 0 0 0
  
CELL_PARAMETERS (angstrom)
   6.700352400000000E+00   0.000000000000000E+00   0.000000000000000E+00
  -1.675088100000000E+00   2.901337950000000E+00   0.000000000000000E+00
   0.000000000000000E+00   0.000000000000000E+00   4.476822000000001E+01
  
ATOMIC_POSITIONS (angstrom)
   Mo   1.772582146852230E+00   8.271797566867440E-01   7.560842378105340E+00
   Mo   1.476793469680100E+00   9.931607003908171E-01   2.984063563559070E+01
   Mo   4.858249267430160E+00   8.648003042387510E-01   7.496840638241140E+00
   Mo   5.006841338582400E+00   8.137573417580440E-01   2.971342585926960E+01
   Mo  -9.132222202544000E-03   1.809619383747500E+00   1.476158359947870E+01
   Mo  -6.532267426059790E-03   1.937539043135960E+00   3.750173170207800E+01
   Mo   3.449839900826490E+00   2.031195925881830E+00   1.506150453743260E+01
   Mo   3.392920221992250E+00   1.939039988523480E+00   3.749718511639750E+01
   Mo   1.407258877499790E-01  -1.416428903007170E-01   2.239067326208670E+01
   Mo  -3.357865402155010E-02  -1.930849562637300E-01   4.472334509311680E+01
   Mo   3.417267547930170E+00   1.603841563609540E-01   2.228024633822430E+01
   Mo   3.175952903493930E+00  -9.721010904702231E-02   4.477724396524090E+01
    S  -1.301217829439750E-01   1.942557249200100E+00   1.486906246859760E+00
    S   4.233778535632700E-02   2.126926809096850E+00   2.405544159440780E+01
    S   3.418649336317420E+00   1.777754062017150E+00   1.742617611088040E+00
    S   3.417953900507880E+00   2.054443742004800E+00   2.387791763936150E+01
    S  -1.598563429395310E-01   4.001994545873230E-02   5.699551825186930E+00
    S   7.922852160175170E-02   4.970101630258190E-02   2.802021056623940E+01
    S   3.287234863913860E+00   1.168028508524020E-01   5.663233555732130E+00
    S   3.321704585067970E+00  -8.995491546282680E-02   2.837333953454410E+01
    S   9.362579103255940E-02  -2.251872607310340E-02   8.924632635296881E+00
    S   1.560898499640440E-01   1.019652566890230E-01   3.141165291012810E+01
    S   3.431510778845450E+00  -1.987738713660820E-02   8.918293831633820E+00
    S   3.536378279406820E+00  -8.982862474207071E-03   3.155647788740080E+01
    S   1.546396206843350E+00   1.011164904371520E+00   1.312762779157310E+01
    S   1.645749300019780E+00   7.743466701734900E-01   3.561385126979460E+01
    S   5.002959066633400E+00   1.020008243475650E+00   1.346583110489810E+01
    S   5.113894527720300E+00   8.644676130841070E-01   3.551135670245900E+01
    S   1.675233756428660E+00   9.683765598098780E-01   1.636129074913170E+01
    S   1.705290680373670E+00   1.021300578677420E+00   3.875526130126720E+01
    S   5.004691146502780E+00   9.807013016461430E-01   1.636281252109760E+01
    S   4.900676439347680E+00   9.287242387492820E-01   3.909706690456280E+01
    S   3.116577422847680E-02   1.985163730627110E+00   2.054475538726100E+01
    S   1.382882953063630E-01   2.012879758181920E+00   4.324094251785700E+01
    S   3.493650391839950E+00   2.028678130742180E+00   2.063319433022880E+01
    S   3.505696617688580E+00   1.876028890271410E+00   4.300827050072130E+01
