 &control

     calculation = 'relax',

     restart_mode='from_scratch',

     tprnfor=.true.

     prefix='MoS2',

     outdir='./tmp',

     max_seconds = 84500

     disk_io = 'none'

     pseudo_dir = '~/pseudo/',

     nstep= 4

 /

 &system

    ibrav = 0,

    nat =  24
    ntyp = 2

    ecutwfc = 45 , ecutrho = 360,

    occupations='smearing', smearing='mv', degauss=0.02

/

  &electrons

     diagonalization='david',

     mixing_mode  =  'local-TF',

     mixing_beta = 0.7

   /

   &ions

     ion_dynamics = 'bfgs'

  /

   &cell

     cell_dynamics = 'bfgs',

   /

 ATOMIC_SPECIES

 Mo  95.5     Mo.pw91-n-van.UPF

 S   32.065   S.pw91-van_ak.UPF

K_POINTS {automatic}
  5  3  1 0 0 0
  
CELL_PARAMETERS (angstrom)
   3.239867461157250E+00   0.000000000000000E+00   0.000000000000000E+00
   3.745841449790916E-02   5.593396644798900E+00   0.000000000000000E+00
   1.839339008580360E-01  -4.237225414225010E-01   2.847962977020700E+01
  
ATOMIC_POSITIONS (angstrom)
   Mo   5.295738281441310E-01   4.302856918287450E+00   2.459909245141340E+01
   Mo   7.126505889827270E-01   3.672494193318870E+00   1.089192437143360E+01
   Mo   2.155759693739050E+00   1.458187522547170E+00   2.457184472838900E+01
   Mo   2.373113161480060E+00   8.961880205926041E-01   1.088604502100040E+01
   Mo   2.693384361909030E+00   5.711768704438280E+00   1.827550827256290E+01
   Mo  -2.388047309152640E-01   2.298198157356130E+00   3.211935381669220E+00
   Mo   1.033145277311400E+00   2.963271691160190E+00   1.823786254736370E+01
   Mo   1.366983710128620E+00  -5.305385980221620E-01   3.212124119257260E+00
    S   2.145981341406130E+00   3.369620483045580E+00   2.303121037986170E+01
    S   2.320853122622630E+00   2.762939074697840E+00   9.313054087624700E+00
    S   5.293670408684800E-01   5.423119572928820E-01   2.298505149164240E+01
    S   7.264138193896360E-01  -4.180619042196460E-02   9.320485641921641E+00
    S   1.086271384419020E+00   6.641110676781010E+00   1.670808213578380E+01
    S   1.398839899242390E+00   3.201668102095370E+00   1.624426891860550E+00
    S   2.671154621184280E+00   3.875913468743790E+00   1.665868911861960E+01
    S  -2.352303532648800E-01   4.107999854790170E-01   1.643242919780630E+00
    S   2.131047217898800E+00   3.335544882939170E+00   2.615048301656050E+01
    S   2.328371167747120E+00   2.762225208662030E+00   1.247147313043590E+01
    S   5.120457580873250E-01   5.733421569635050E-01   2.616919432183540E+01
    S   7.342209601138990E-01  -3.498249397462990E-02   1.245411516566770E+01
    S   1.042062387191430E+00   1.094205142468360E+00   1.982888302671970E+01
    S   1.392622531524740E+00   3.211850375386600E+00   4.796131734933790E+00
    S   2.664504759029610E+00   3.840475183528850E+00   1.983760368610040E+01
    S  -2.424053821574350E-01   4.170598663938060E-01   4.774461060204120E+00
