 &control

     calculation = 'relax',

     restart_mode='from_scratch',

     tprnfor=.true.

     prefix='MoS2',

     outdir='./tmp',

     max_seconds = 84500

     disk_io = 'none'

     pseudo_dir = '~/pseudo/',

     nstep= 4

 /

 &system

    ibrav = 0,

    nat =  24
    ntyp = 2

    ecutwfc = 45 , ecutrho = 360,

    occupations='smearing', smearing='mv', degauss=0.02

/

  &electrons

     diagonalization='david',

     mixing_mode  =  'local-TF',

     mixing_beta = 0.7

   /

   &ions

     ion_dynamics = 'bfgs'

  /

   &cell

     cell_dynamics = 'bfgs',

   /

 ATOMIC_SPECIES

 Mo  95.5     Mo.pw91-n-van.UPF

 S   32.065   S.pw91-van_ak.UPF

K_POINTS {automatic}
  5  3  1 0 0 0
  
CELL_PARAMETERS (angstrom)
   3.221587242024270E+00   0.000000000000000E+00   0.000000000000000E+00
   1.144669570863886E-02   5.591723538806650E+00   0.000000000000000E+00
   6.761276831520030E-01   7.026615876838970E-01   3.211031624053250E+01
  
ATOMIC_POSITIONS (angstrom)
   Mo   2.120516710607150E+00   3.567862264070720E+00   2.821355654152070E+01
   Mo   3.299081653562350E-01   5.081074133358970E+00   1.041962086003680E+01
   Mo   3.787269323857840E+00   7.966827599044640E-01   2.825174386864300E+01
   Mo   1.893300657853160E+00   2.301674388177520E+00   1.037262363043350E+01
   Mo   2.009469866066370E+00   2.563657513424950E+00   2.180804676480490E+01
   Mo   1.034258723313620E-01   1.309917197914310E+00   3.719228406889650E+00
   Mo   3.613474649899250E+00   5.336863990005620E+00   2.184511721879430E+01
   Mo   1.776409483979440E+00   4.131555377564520E+00   3.773915607108030E+00
    S   3.717239491792230E+00   4.528336592949710E+00   2.664577457420150E+01
    S   1.936667556558860E+00   4.062878728298690E-01   8.829016253230369E+00
    S   2.174214294595320E+00   1.693118142274750E+00   2.664278908195050E+01
    S   2.912450667720720E-01   3.244618182986030E+00   8.798155949018909E+00
    S   3.637224363875940E+00   1.612116407316750E+00   2.026304325942480E+01
    S   1.695842744811340E+00   3.532701768475710E-01   2.158226728917010E+00
    S   2.013621005537170E+00   4.448658254498580E+00   2.026398488627700E+01
    S   1.524738809814000E-01   3.198040902968090E+00   2.186001319436930E+00
    S   3.738781851679800E+00   4.497845453398000E+00   2.978229395509990E+01
    S   1.930130909612740E+00   4.558680221088230E-01   1.196752312721630E+01
    S   2.187632655790040E+00   1.730929653595900E+00   2.981765963514830E+01
    S   2.671041266693450E-01   3.203196514139740E+00   1.196370232569180E+01
    S   3.597052646882050E+00   1.618702520188810E+00   2.340528047660290E+01
    S   1.720719413559280E+00   4.359341583951930E-01   5.329064282459030E+00
    S   1.981209972504470E+00   4.381815513241440E+00   2.343109212861740E+01
    S   1.841544586732630E-01   3.177617235064950E+00   5.325320456793990E+00
