 &control

     calculation = 'scf',

     restart_mode='from_scratch',

     tprnfor=.true.

     prefix='MoS2',

     outdir='./tmp',

     max_seconds = 84500

     disk_io = 'none'

     pseudo_dir = '~/pseudo/',

 /

 &system

    ibrav = 0,

    nat =  36
    ntyp = 2

    ecutwfc = 45 , ecutrho = 360,

    occupations='smearing', smearing='mv', degauss=0.02

/

  &electrons

     diagonalization='david',

     mixing_mode  =  'local-TF',

     mixing_beta = 0.7

   /

   &ions

     ion_dynamics = 'bfgs'

  /

   &cell

     cell_dynamics = 'bfgs',

   /

 ATOMIC_SPECIES

 Mo  95.5     Mo.pw91-n-van.UPF

 S   32.065   S.pw91-van_ak.UPF

K_POINTS {automatic}
  3  3  1 0 0 0
  
CELL_PARAMETERS (angstrom)
   6.435369777830623E+00   0.000000000000000E+00   0.000000000000000E+00
  -3.275137609087813E+00   5.734344644332161E+00   0.000000000000000E+00
  -1.411287281347960E+00  -7.015955034332461E-01   1.711031858698206E+01
  
ATOMIC_POSITIONS (angstrom)
   Mo   1.341484309575330E+00   1.124987029475660E+00   5.400131744699630E+00
   Mo  -2.216287013836480E-01   4.016595338980060E+00   5.493988117893180E+00
   Mo   4.563035557315130E+00   1.107091619180410E+00   5.627999423343900E+00
   Mo   2.921408807437800E+00   3.773450615961730E+00   6.236286544611940E+00
   Mo  -8.640519281719280E-01   9.636385403162770E-01   1.147174965352140E+01
   Mo  -2.459378997752920E+00   3.841003191749310E+00   1.120426262587300E+01
   Mo   2.353601985434120E+00   1.122787443052280E+00   1.156680441579480E+01
   Mo   6.899187838607620E-01   3.821920238617140E+00   1.108556689148470E+01
   Mo  -1.648480838868720E+00  -9.019541275293750E-01   1.675881686939420E+01
   Mo  -3.483177586873450E+00   2.096761916358560E+00   1.761241757174180E+01
   Mo   1.436086113800560E+00  -8.019757103748010E-01   1.759093790415440E+01
   Mo  -1.234759507377240E-01   1.989346116662380E+00   1.679665374460790E+01
    S  -4.856144472389890E-01   1.784305266114300E+00   1.030172720419190E+00
    S  -2.133794683978830E+00   4.780065943460370E+00   1.396227883455220E+00
    S   2.785398121917190E+00   1.825469847888930E+00   1.445243656719310E+00
    S   1.124772576352570E+00   4.600875243393890E+00   1.052327577958510E+00
    S  -2.737577089964080E-01   7.161748944882460E-01   4.416220962117940E+00
    S  -1.862730361239070E+00   3.270847738253690E+00   4.653658347435020E+00
    S   2.984037718337710E+00   3.179577670214320E-01   4.338416929365670E+00
    S   1.534276601327550E+00   3.217723206642690E+00   4.580638286729000E+00
    S  -4.342618970923170E-01  -4.542052750149730E-02   6.805355526250840E+00
    S  -1.964938050564600E+00   2.700726244402470E+00   7.009767505007920E+00
    S   2.839266812582650E+00  -4.751256269372720E-02   6.683521244365740E+00
    S   1.170802820904500E+00   2.873266565161120E+00   6.904460582840430E+00
    S   4.976399526760670E-01  -1.911588771501620E-01   1.028079564393040E+01
    S  -9.548802277615180E-01   2.584821936766480E+00   1.025670058210300E+01
    S   3.714052828077770E+00  -1.409045362795150E-01   1.030196648954580E+01
    S   2.320731467737010E+00   2.536510321543390E+00   1.019215020743370E+01
    S   6.805898838410730E-01   1.212204236344160E+00   1.267055509593560E+01
    S  -8.524662996885560E-01   4.151313935302440E+00   1.240172300310920E+01
    S   3.970923071245830E+00   1.287521135764190E+00   1.263671328232960E+01
    S   2.271497825693540E+00   3.972894650073140E+00   1.233215567656060E+01
    S  -1.240513901058800E+00   7.703739894113960E-01   1.571355345070120E+01
    S  -3.035224990323800E+00   3.825738269938890E+00   1.619666135070030E+01
    S   1.713380451452740E+00   1.069532015345660E+00   1.620213517963850E+01
    S   3.205591914504350E-01   3.669797113325760E+00   1.572718602745280E+01
