 &control

     calculation = 'scf',

     restart_mode='from_scratch',

     tprnfor=.true.

     prefix='MoS2',

     outdir='./tmp',

     max_seconds = 84500

     disk_io = 'none'

     pseudo_dir = '~/pseudo/',

 /

 &system

    ibrav = 0,

    nat =  36
    ntyp = 2

    ecutwfc = 45 , ecutrho = 360,

    occupations='smearing', smearing='mv', degauss=0.02

/

  &electrons

     diagonalization='david',

     mixing_mode  =  'local-TF',

     mixing_beta = 0.7

   /

   &ions

     ion_dynamics = 'bfgs'

  /

   &cell

     cell_dynamics = 'bfgs',

   /

 ATOMIC_SPECIES

 Mo  95.5     Mo.pw91-n-van.UPF

 S   32.065   S.pw91-van_ak.UPF

K_POINTS {automatic}
  3  3  1 0 0 0
  
CELL_PARAMETERS (angstrom)
   6.381288000000000E+00   0.000000000000000E+00   0.000000000000000E+00
  -3.190644000000000E+00   5.526358000000000E+00   0.000000000000000E+00
   0.000000000000000E+00   0.000000000000000E+00   2.131820000000000E+01
  
ATOMIC_POSITIONS (angstrom)
   Mo   1.440763169929370E+00   9.619924336181030E-01   6.981157742725440E+00
   Mo  -5.096921279322330E-02   3.490881029291400E+00   7.097412405918600E+00
   Mo   4.738916193751010E+00   8.374799212808610E-01   7.276807014343220E+00
   Mo   3.351014361281470E+00   3.795014554223680E+00   7.056468590755500E+00
   Mo  -1.900785700087780E-01   1.780083322790990E+00   1.420267874128630E+01
   Mo  -1.430245066559990E+00   4.514594561577580E+00   1.427463035072900E+01
   Mo   3.165558408483530E+00   1.665525144985160E+00   1.429785725214720E+01
   Mo   1.563595914669350E+00   4.541423826281840E+00   1.439423798980460E+01
   Mo  -6.292951857009940E-02   1.413341085594110E-01   2.118670005349410E+01
   Mo  -1.600084663803790E+00   2.794627773561150E+00   2.151090057205200E+01
   Mo   3.346343349659940E+00  -7.150021498385840E-02   2.121026933970460E+01
   Mo   1.591041821627630E+00   2.916712431909900E+00   2.144154430586550E+01
    S   2.430748614811020E-02   1.786843064921430E+00   1.369868935859470E+00
    S  -1.533538570823060E+00   4.467686539719850E+00   1.691856434066480E+00
    S   3.017404551067720E+00   1.907176746020710E+00   1.636405153673760E+00
    S   1.553397276183730E+00   4.628995690995150E+00   1.366419111482220E+00
    S   3.707654947857320E-02  -1.537134788340760E-01   5.658544985381270E+00
    S  -1.540604323160760E+00   2.762275426946890E+00   5.728447972963260E+00
    S   3.047750066076330E+00   1.287756270995820E-01   5.481325251435570E+00
    S   1.408793195215750E+00   2.834718023479200E+00   5.526637570356730E+00
    S   3.891434079514280E-02   5.508871053774460E-02   8.854878552240161E+00
    S  -1.712191090858000E+00   2.769227887429530E+00   8.828782681219151E+00
    S   3.304445604182060E+00  -1.629789687912500E-01   8.644525213693971E+00
    S   1.583629607676510E+00   2.798836714322140E+00   8.863042433607429E+00
    S   1.587299445898530E+00   1.001284031909080E+00   1.245911155094780E+01
    S  -1.898302461424660E-01   3.621599674373360E+00   1.263578858964300E+01
    S   4.751770851486940E+00   9.330038602910180E-01   1.283883267388370E+01
    S   3.195908989868060E+00   3.666707289968170E+00   1.284130097059750E+01
    S   1.528987196793850E+00   8.017352815908070E-01   1.591880937097190E+01
    S  -1.466662568483670E-01   3.645219832561720E+00   1.564239984756510E+01
    S   4.902285086436530E+00   1.065565557341920E+00   1.584740707528270E+01
    S   2.999426807535810E+00   3.681044780103890E+00   1.571412895878000E+01
    S   6.023015075755580E-02   1.975186971766370E+00   1.961159983948800E+01
    S  -1.684259861176840E+00   4.635434521733090E+00   1.992480600258650E+01
    S   3.257269685685360E+00   1.880826213780060E+00   1.956366045517810E+01
    S   1.528190511317520E+00   4.467574057097590E+00   1.961967020827170E+01
