 &control

     calculation = 'scf',

     restart_mode='from_scratch',

     tprnfor=.true.

     prefix='MoS2',

     outdir='./tmp',

     max_seconds = 84500

     disk_io = 'none'

     pseudo_dir = '~/pseudo/',

 /

 &system

    ibrav = 0,

    nat =  36
    ntyp = 2

    ecutwfc = 45 , ecutrho = 360,

    occupations='smearing', smearing='mv', degauss=0.02

/

  &electrons

     diagonalization='david',

     mixing_mode  =  'local-TF',

     mixing_beta = 0.7

   /

   &ions

     ion_dynamics = 'bfgs'

  /

   &cell

     cell_dynamics = 'bfgs',

   /

 ATOMIC_SPECIES

 Mo  95.5     Mo.pw91-n-van.UPF

 S   32.065   S.pw91-van_ak.UPF

K_POINTS {automatic}
  3  3  1 0 0 0
  
CELL_PARAMETERS (angstrom)
   6.367920865231484E+00   0.000000000000000E+00   0.000000000000000E+00
  -3.139814257300479E+00   5.536323843629208E+00   0.000000000000000E+00
  -4.482675616692495E-01  -2.671641924907583E-01   1.718368820100724E+01
  
ATOMIC_POSITIONS (angstrom)
   Mo   1.572882613329560E+00   9.799694550204600E-01   5.566859759449320E+00
   Mo  -6.081043068510580E-02   3.716791714298180E+00   5.609198851317740E+00
   Mo   4.713474601810130E+00   9.724055175351590E-01   5.652055246682830E+00
   Mo   3.120224959373890E+00   3.753365743729190E+00   6.005292441631520E+00
   Mo  -2.442305629379160E-01   1.606021236106460E+00   1.147873035144030E+01
   Mo  -1.842460144287450E+00   4.322499580578750E+00   1.132926878764640E+01
   Mo   2.935132985736740E+00   1.550312106673230E+00   1.152639713511090E+01
   Mo   1.355715731869290E+00   4.321722946673010E+00   1.140248156147730E+01
   Mo  -5.472175474781400E-01  -3.267866851421030E-01   1.702019565166330E+01
   Mo  -2.115198171886420E+00   2.439484934789460E+00   1.739864449857020E+01
   Mo   2.625811165573610E+00  -3.157270782940470E-01   1.738925279362750E+01
   Mo   1.087373713922740E+00   2.448285762949750E+00   1.705471039499520E+01
    S  -1.206276034477030E-01   1.776499241097260E+00   1.152212718631990E+00
    S  -1.676104052849140E+00   4.532073540134770E+00   1.262474651526470E+00
    S   2.997869124701500E+00   1.867507558363400E+00   1.265813417370110E+00
    S   1.437645088102330E+00   4.574138907952020E+00   1.164282311509910E+00
    S   1.210834610047590E-02   2.111744300411120E-01   4.544332808050240E+00
    S  -1.706213380811930E+00   2.834568224266260E+00   4.574595238033930E+00
    S   3.213070552589150E+00   1.560392818470230E-02   4.435021598123090E+00
    S   1.545277906854510E+00   2.910089683759490E+00   4.548303544489910E+00
    S  -1.579330296001890E-01   7.744277192363461E-02   6.910185706528830E+00
    S  -1.714316068368650E+00   2.806073501725500E+00   6.946506440876250E+00
    S   3.064534550361320E+00  -8.353606199661601E-02   6.798219793190950E+00
    S   1.574552962366160E+00   2.687221414402160E+00   6.909045030975320E+00
    S   1.156223650155530E+00   4.383258896400720E-01   1.026527683994720E+01
    S  -3.127309724196580E-01   3.303713229061350E+00   1.023026264252860E+01
    S   4.473555179391690E+00   4.680369632583110E-01   1.031479253180680E+01
    S   2.865889109260620E+00   3.129079548192390E+00   1.026494284768070E+01
    S   1.385859056981930E+00   8.371599625541850E-01   1.261053388948280E+01
    S  -1.620974248275410E-01   3.611029366131720E+00   1.258287795485420E+01
    S   4.567580118453890E+00   1.055055990640670E+00   1.263991731564430E+01
    S   2.946655572778480E+00   3.763616281490980E+00   1.256772359181210E+01
    S  -3.772959470694310E-01   1.518639654647170E+00   1.596846563263650E+01
    S  -2.136761236742540E+00   4.250102605171500E+00   1.607387977319490E+01
    S   2.796170986176260E+00   1.433076370899190E+00   1.609882914385230E+01
    S   1.138671843949520E+00   4.296361194214040E+00   1.597849073254530E+01
