 &control

     calculation = 'scf',

     restart_mode='from_scratch',

     tprnfor=.true.

     prefix='MoS2',

     outdir='./tmp',

     max_seconds = 84500

     disk_io = 'none'

     pseudo_dir = '~/pseudo/',

     nstep= 15 

 /

 &system

    ibrav = 0,

    nat =  36
    ntyp = 2

    ecutwfc = 45 , ecutrho = 360,

    occupations='smearing', smearing='mv', degauss=0.02

/

  &electrons

     diagonalization='david',

     mixing_mode  =  'local-TF',

     mixing_beta = 0.7

   /

   &ions

     ion_dynamics = 'bfgs'

  /

   &cell

     cell_dynamics = 'bfgs',

   /

 ATOMIC_SPECIES

 Mo  95.5     Mo.pw91-n-van.UPF

 S   32.065   S.pw91-van_ak.UPF

K_POINTS {automatic}
  3  3  1 0 0 0
  
CELL_PARAMETERS (angstrom)
   6.451460994574740E+00   0.000000000000000E+00   0.000000000000000E+00
   3.223615208991709E+00   5.651395271738528E+00   0.000000000000000E+00
   4.784735588701773E+00   1.756018909774019E+00   3.386559529820624E+01
  
ATOMIC_POSITIONS (angstrom)
   Mo   7.812838471154410E+00   2.033512915843950E+00   3.407115878591940E+01
   Mo   7.870577759069560E+00   2.541361668520620E+00   1.627224037276490E-01
   Mo   1.103872116410520E+01   2.032386334449490E+00   3.406774730534900E+01
   Mo   4.648132583853480E+00   2.545427951069820E+00   1.533349531229300E-01
   Mo   8.284841343853399E+00   6.466751340779700E+00   2.692508659641100E+01
   Mo   9.880382485537609E+00   3.621927138626190E+00   2.692782834423800E+01
   Mo   1.149629266435230E+01   6.447663148470190E+00   2.692851773594570E+01
   Mo   6.661672625100020E+00   3.634137366655060E+00   2.692479269676210E+01
   Mo   1.534075324045810E+00   5.039253711649860E-01   6.760304836967740E+00
   Mo   6.375926186061010E+00   3.327380023007610E+00   6.757300995793430E+00
   Mo   4.757721577939490E+00   5.101628021281710E-01   6.761837055291060E+00
   Mo   3.153903180163390E+00   3.329805696208710E+00   6.757613749923570E+00
    S   1.416847154449970E+00   8.502614182843740E-01   1.912765594554130E+00
    S   6.246123046715970E+00   3.803958478196210E+00   1.631921087994740E+00
    S   4.642423974778100E+00   8.408746211379060E-01   1.910760370656610E+00
    S   3.031122195480420E+00   3.809653436747350E+00   1.628095915008670E+00
    S   9.899853861149550E+00   5.505512723354630E+00   2.849024833675860E+01
    S   5.056217596826810E+00   2.701564361861200E+00   2.848530551876960E+01
    S   6.684041825197600E+00   5.524515253521590E+00   2.847688417852290E+01
    S   8.274213844297989E+00   2.681057165010190E+00   2.849002980163520E+01
    S   6.359436324710660E+00   5.204589118869940E+00   8.319218750827860E+00
    S   7.978406358560370E+00   2.384593358216980E+00   8.316430896872481E+00
    S   9.586052126792900E+00   5.205933156537910E+00   8.315166481321629E+00
    S   4.751892959639530E+00   2.383397752889170E+00   8.319238992998351E+00
    S   9.431421996773070E+00   6.416879315459200E+00   3.259560490271080E+01
    S   1.104572983515230E+01   3.720822403293020E+00   3.231199207923240E+01
    S   1.264951181012320E+01   6.410792021051250E+00   3.260613161591050E+01
    S   7.808582812381020E+00   3.721807051865380E+00   3.231713893706400E+01
    S   9.872195353381141E+00   5.488496138972740E+00   2.536619894111940E+01
    S   5.037636799137180E+00   2.688997633066650E+00   2.535667440718690E+01
    S   6.660493710595990E+00   5.513892471116600E+00   2.537731539209050E+01
    S   8.257683632303340E+00   2.668359653674570E+00   2.536860643763090E+01
    S   6.386052882544700E+00   5.209506820892150E+00   5.208318397038300E+00
    S   8.010608581198611E+00   2.388822840221230E+00   5.202737510020290E+00
    S   9.596161152254339E+00   5.212943924166840E+00   5.207200240045200E+00
    S   4.778742165873050E+00   2.386846185613340E+00   5.183826327128840E+00
