 &control

     calculation = 'relax',

     restart_mode='from_scratch',

     tprnfor=.true.

     prefix='MoS2',

     outdir='./tmp',

     max_seconds = 84500

     disk_io = 'none'

     pseudo_dir = '~/pseudo/',

     nstep= 4

 /

 &system

    ibrav = 0,

    nat =  24
    ntyp = 2

    ecutwfc = 45 , ecutrho = 360,

    occupations='smearing', smearing='mv', degauss=0.02

/

  &electrons

     diagonalization='david',

     mixing_mode  =  'local-TF',

     mixing_beta = 0.7

   /

   &ions

     ion_dynamics = 'bfgs'

  /

   &cell

     cell_dynamics = 'bfgs',

   /

 ATOMIC_SPECIES

 Mo  95.5     Mo.pw91-n-van.UPF

 S   32.065   S.pw91-van_ak.UPF

K_POINTS {automatic}
  3  3  1 0 0 0
  
CELL_PARAMETERS (angstrom)
   6.410097699738590E+00   0.000000000000000E+00   0.000000000000000E+00
   3.161345713310040E+00   5.631380120405440E+00   0.000000000000000E+00
   1.838729584086020E+00   2.588586776868770E+00   1.862794268702500E+01
  
ATOMIC_POSITIONS (angstrom)
   Mo   7.380134163983790E+00   2.219824890623420E+00   1.465513591979520E+01
   Mo   9.032974189931741E+00   5.059001136328160E+00   1.460192794036810E+01
   Mo   5.730461665098910E+00   5.059729953243560E+00   1.462285740183710E+01
   Mo   4.146781095140910E+00   2.212982839786730E+00   1.465981160524180E+01
   Mo   4.018216624383700E+00   6.103542071857430E+00   3.939249003851010E+00
   Mo   2.478509107039820E+00   3.095773001230340E+00   4.016497514618670E+00
   Mo   5.684337059556140E+00   3.073989087425620E+00   3.954786728686330E+00
   Mo   7.198573062060110E+00   6.017491241730500E+00   3.835917092657300E+00
    S   5.763554946300180E+00   3.191767946952960E+00   1.620379427904350E+01
    S   7.407245950808190E+00   5.949856104528990E+00   1.618808113839850E+01
    S   4.180602004618490E+00   6.005286046638440E+00   1.622926627685140E+01
    S   2.567609110410170E+00   3.212152457916610E+00   1.621347412605310E+01
    S   8.896425190087820E+00   4.980500682315330E+00   2.413422574898000E+00
    S   7.352425269404040E+00   2.275887231131120E+00   2.340918990458060E+00
    S   4.075810759951080E+00   2.276364356179520E+00   2.320643033814320E+00
    S   5.560061251712920E+00   4.973409903987260E+00   2.389989071535510E+00
    S   8.782577251542889E+00   5.095027677714360E+00   5.442216662394390E+00
    S   7.279769744702290E+00   2.243315858723130E+00   5.610729969562310E+00
    S   4.098574745441220E+00   2.126056397237910E+00   5.545326659306130E+00
    S   5.615558237718370E+00   5.049911177049130E+00   5.442836533755880E+00
    S   5.735252566390180E+00   3.150861002379510E+00   1.309892629197690E+01
    S   7.379884242454480E+00   5.986828462254170E+00   1.308079466490770E+01
    S   4.178951675276640E+00   6.043088606668020E+00   1.301389844781530E+01
    S   2.566019284322580E+00   3.157405068386510E+00   1.306680666266100E+01
