 &control

     calculation = 'scf',

     restart_mode='from_scratch',

     tprnfor=.true.

     prefix='MoS2',

     outdir='./tmp',

     max_seconds = 84500

     disk_io = 'none'

     pseudo_dir = '~/pseudo/',

 /

 &system

    ibrav = 0,

    nat =  24
    ntyp = 2

    ecutwfc = 45 , ecutrho = 360,

    occupations='smearing', smearing='mv', degauss=0.02

/

  &electrons

     diagonalization='david',

     mixing_mode  =  'local-TF',

     mixing_beta = 0.7

   /

   &ions

     ion_dynamics = 'bfgs'

  /

   &cell

     cell_dynamics = 'bfgs',

   /

 ATOMIC_SPECIES

 Mo  95.5     Mo.pw91-n-van.UPF

 S   32.065   S.pw91-van_ak.UPF

K_POINTS {automatic}
  3  6  1 0 0 0
  
CELL_PARAMETERS (angstrom)
   6.355738333142916E+00   0.000000000000000E+00   0.000000000000000E+00
  -1.591212497471142E+00   2.748288026966928E+00   0.000000000000000E+00
  -1.446138598663211E-01  -5.889619067147951E-01   2.329604258850242E+01
  
ATOMIC_POSITIONS (angstrom)
   Mo   5.022997829871480E-02  -2.204285928328280E-01   8.748439454902220E+00
   Mo  -1.424630510026970E-01  -5.490796332230879E-01   2.027423814342160E+01
   Mo   3.220371566739130E+00  -1.962123352621360E-01   8.665318915144180E+00
   Mo   3.019832504384710E+00  -5.463235808604670E-01   2.059029786455600E+01
   Mo  -2.930465706987470E-02  -5.806254799470980E-02   2.946578488544710E+00
   Mo  -1.448697125164030E-01  -3.583104017373700E-01   1.454629712814550E+01
   Mo   3.146208529033560E+00  -5.913583919099180E-02   2.888357125591760E+00
   Mo   3.023752431995910E+00  -3.431413922444480E-01   1.452484712972180E+01
    S   1.671523145479600E+00   4.974723116760900E-01   9.864617565511089E+00
    S   1.419848543249000E+00   3.491094117436070E-01   2.166830658973350E+01
    S   4.840443360083710E+00   5.789709029016400E-01   9.899966614708109E+00
    S   4.554848787495110E+00   3.267873825747930E-01   2.156192987824420E+01
    S  -1.027456945144240E-01   1.754752606063080E+00   1.745777694682600E+00
    S  -1.099775515276450E-01   1.452863586044750E+00   1.335614591542430E+01
    S   3.046091765705470E+00   1.794219808530980E+00   1.727482886571970E+00
    S   2.986958065938850E+00   1.486587666376670E+00   1.334949532616240E+01
    S   2.239682089950720E-02   1.826010505327090E+00   4.110189402931940E+00
    S  -1.658443248423790E-01   1.433594620674710E+00   1.572327544082710E+01
    S   3.266134074280140E+00   1.722546068152720E+00   4.086546155372060E+00
    S   3.030681106322630E+00   1.508537747635910E+00   1.571690215595420E+01
    S   1.535112278951200E+00   8.946186370933880E-01   7.525773137096020E+00
    S   1.454401171427310E+00   4.246418482676990E-01   1.929850641793710E+01
    S   4.759984134832600E+00   7.903638940741710E-01   7.538954243267010E+00
    S   4.727967396577890E+00   3.832253578534930E-01   1.919406349156130E+01
