 &control

     calculation = 'scf',

     restart_mode='from_scratch',

     tprnfor=.true.

     prefix='MoS2',

     outdir='./tmp',

     max_seconds = 84500

     disk_io = 'none'

     nstep= 12

     pseudo_dir = '~/pseudo/',

 /

 &system

    ibrav = 0,

    nat =  33
    ntyp = 2

    ecutwfc = 45 , ecutrho = 360,

    occupations='smearing', smearing='mv', degauss=0.02

/

  &electrons

     diagonalization='david',

     mixing_mode  =  'local-TF',

     mixing_beta = 0.7

   /

   &ions

     ion_dynamics = 'bfgs'

  /

   &cell

     cell_dynamics = 'bfgs',

   /

 ATOMIC_SPECIES

 Mo  95.5     Mo.pw91-n-van.UPF

 S   32.065   S.pw91-van_ak.UPF

K_POINTS {automatic}
  2  2  2 0 0 0
  
CELL_PARAMETERS (angstrom)
   8.758630673162889E+00   0.000000000000000E+00   0.000000000000000E+00
   1.678897133853650E+00   9.790269917264229E+00   0.000000000000000E+00
   3.698005524730420E+00   3.481699787889880E+00   8.729988762626011E+00
  
ATOMIC_POSITIONS (angstrom)
   Mo   7.704398838203240E+00   9.154317565814109E+00   3.441279623610620E+00
   Mo   1.213387914862950E+01   1.047482963277250E+01   7.361983568981920E+00
   Mo   1.466753676086770E+00   1.928432489693760E+00   3.097698721525270E+00
   Mo   6.936475875594250E+00   3.091961304677970E+00   3.758393526136940E+00
   Mo   9.363338275219689E+00   8.284806918779219E+00   1.303536607682200E+00
   Mo   3.732741064586000E+00   3.454942429328450E+00   3.075405261356280E+00
   Mo   6.249172868245820E+00   1.046320497721560E+01   6.421456832171580E+00
   Mo   9.413586671404270E+00   1.047138338556780E+01   6.588281062917910E+00
   Mo   1.905961572995720E+00   4.099900926100870E+00   1.023834856444230E+00
   Mo   6.568713901717970E+00   8.271223650741410E+00   8.622368703788530E-01
   Mo   9.475600103846240E+00   4.883780626993510E+00   3.369877008347880E+00
    S   8.040555688648970E+00   1.017751122848020E+01   8.548519050533359E+00
    S   7.764404083123490E+00   8.630738885388830E+00   5.891267612130410E+00
    S   4.204614867728120E+00   1.031144555424340E+01   5.025446228052270E+00
    S   1.082299129039620E+01   8.558052420733841E+00   6.617663558850480E+00
    S   5.160333995758670E+00   8.574810475762300E+00   7.598014215970400E+00
    S   7.662540384826430E+00   4.969823277497120E+00   4.932730548928690E+00
    S   3.133677232133960E+00   2.144402518148320E+00   1.271853021755160E+00
    S   5.735465420622510E+00   4.265806909831810E+00   2.060644272799130E+00
    S   9.434558463307630E+00   7.399381181784720E+00   3.551120317920180E+00
    S   2.944740722450440E+00   5.652641920183910E+00   2.453637265613510E+00
    S   7.990683644193050E+00   6.323394466831180E+00   9.064645063811730E-01
    S   5.915576534017100E+00   7.674663654605670E+00   3.113298314254900E+00
    S   1.084063023180720E+01   3.591608607551950E+00   4.809298970294310E+00
    S   2.737994360612460E+00   9.441072904217920E+00   1.910430024151030E+00
    S   8.588946870362470E+00   3.246291300373570E+00   1.807022538423390E+00
    S   6.642647316810590E+00   1.129553762218880E+01   4.022072799919330E+00
    S   6.118573133900350E+00   2.635820289385440E+00   6.193001148541100E+00
    S   5.072159885855080E+00   1.216155215095560E+01   7.734576022833150E+00
    S   9.754809582590539E+00   1.080254208683620E+01   4.198357151476150E+00
    S   1.067123573610210E+01   1.237645512944950E+01   7.230148708573190E+00
    S   7.976060112306640E+00   1.014768684786240E+01   1.284020454586730E+00
    S   4.258834567247580E+00   9.145321630388890E+00   5.009261197158890E-01
