 &control

     calculation = 'scf',

     restart_mode='from_scratch',

     tprnfor=.true.

     prefix='MoS2',

     outdir='./tmp',

     max_seconds = 84500

     disk_io = 'none'

     nstep= 25

     pseudo_dir = '~/pseudo/',

 /

 &system

    ibrav = 0,

    nat =  30
    ntyp = 2

    ecutwfc = 45 , ecutrho = 360,

    occupations='smearing', smearing='mv', degauss=0.02

/

  &electrons

     diagonalization='david',

     mixing_mode  =  'local-TF',

     mixing_beta = 0.7

   /

   &ions

     ion_dynamics = 'bfgs'

  /

   &cell

     cell_dynamics = 'bfgs',

   /

 ATOMIC_SPECIES

 Mo  95.5     Mo.pw91-n-van.UPF

 S   32.065   S.pw91-van_ak.UPF

K_POINTS {automatic}
  2  2  2 0 0 0
  
CELL_PARAMETERS (angstrom)
   7.608532918491980E+00   0.000000000000000E+00   0.000000000000000E+00
  -5.478930478064230E-01   9.093187243635910E+00   0.000000000000000E+00
  -9.357449166142160E-01  -1.860883917379260E+00   1.047005223978360E+01
  
ATOMIC_POSITIONS (angstrom)
   Mo   2.903801806489530E+00   3.402462348256700E+00   7.300881329965710E+00
   Mo  -4.575287104530980E-01   1.488339648628750E-01   7.169489724050440E+00
   Mo   6.041765581201990E+00  -5.731702134867580E-01   3.021870598100720E+00
   Mo   2.303289657224290E+00   5.559097092566630E+00   2.854457800932100E+00
   Mo   1.272517904043930E-01   7.077735665452590E+00   1.655139390123350E+00
   Mo   2.173515536742070E+00   7.009182035032751E-01   7.821968591809360E+00
   Mo   8.309104195440030E-01   7.197947573455340E+00   6.724916707369420E+00
   Mo  -8.571096604413140E-01   4.873520201405130E+00   7.082640940179190E+00
   Mo   4.622574587556280E+00   1.193076506272160E+00   6.861107972449910E+00
   Mo  -2.519425801049000E-01   6.138422895775480E+00   4.286431047252460E+00
    S   2.932142317178630E+00  -2.613321433948880E-01   5.814472105864790E+00
    S   4.104287423360850E+00   3.037726582304050E+00   5.330194947501530E+00
    S   8.402051265470321E-01   2.264133732170750E+00   6.684654422252070E+00
    S   6.227502147151310E+00   7.985218815457360E-01   5.013730341032010E+00
    S   6.201700286286070E+00   7.033650556914300E+00   6.199816884148950E+00
    S   4.605818819472300E+00   6.543437081226120E+00   3.532745326346970E+00
    S   2.418866404420300E-01   8.386404276687561E+00   3.515605932846020E+00
    S   1.851240330155770E+00   5.466329263104960E+00   5.139891801712480E+00
    S   6.211943585522460E+00   4.031548105107970E+00   4.957738379821350E+00
    S   4.614515572859950E+00   5.029503036644130E+00   7.911781804109890E+00
    S   6.496839190227790E+00   2.500827427600980E+00   7.909789327377830E+00
    S  -6.078509783743160E-02   4.845963416394220E+00   2.196389330259200E+00
    S   6.096233727164640E+00   8.275883777318899E+00   6.857739641162079E-01
    S   4.438569457272530E+00   7.063649207111909E-01   2.403429223717910E+00
    S   2.283578856736160E+00   7.090824503493700E+00   1.035025876518620E+00
    S   3.163742892381440E+00   3.753378956535500E+00   2.075474774109570E+00
    S   8.565320008123340E-01  -9.222205750330750E-01   8.962231939727880E+00
    S   3.590865130456330E+00   2.088237805405370E+00   9.110193539102440E+00
    S   5.246233579061260E+00  -5.603154188116620E-01   8.352642572712250E+00
    S   1.273164407916230E+00   5.234049697414080E+00   8.134615940196509E+00
