 &control

     calculation = 'relax',

     restart_mode='from_scratch',

     tprnfor=.true.

     prefix='MoS2',

     outdir='./tmp',

     max_seconds = 84500

     disk_io = 'none'

     pseudo_dir = '~/pseudo/',

     nstep= 4

 /

 &system

    ibrav = 0,

    nat =  24
    ntyp = 2

    ecutwfc = 45 , ecutrho = 360,

    occupations='smearing', smearing='mv', degauss=0.02

/

  &electrons

     diagonalization='david',

     mixing_mode  =  'local-TF',

     mixing_beta = 0.7

   /

   &ions

     ion_dynamics = 'bfgs'

  /

   &cell

     cell_dynamics = 'bfgs',

   /

 ATOMIC_SPECIES

 Mo  95.5     Mo.pw91-n-van.UPF

 S   32.065   S.pw91-van_ak.UPF

K_POINTS {automatic}
  5  3  1 0 0 0
  
CELL_PARAMETERS (angstrom)
   3.225507337627330E+00   0.000000000000000E+00   0.000000000000000E+00
  -1.350952671014315E-04   5.594425258933820E+00   0.000000000000000E+00
  -3.591386889223710E-01   1.943426661944050E+00   3.180376878542690E+01
  
ATOMIC_POSITIONS (angstrom)
   Mo   1.248534693736140E+00   4.576169258193380E+00   2.835174545392660E+01
   Mo  -3.935001993761990E-02   5.420004647017210E+00   1.026604073078090E+01
   Mo   2.861431252471730E+00   1.778949170246970E+00   2.835172732131430E+01
   Mo   1.573447651926200E+00   2.622817596258150E+00   1.026601261812800E+01
   Mo   1.303238892354690E+00   3.384722958451460E+00   2.155042999725510E+01
   Mo  -9.449669048141500E-03   1.648487357955090E+00   3.421077172876480E+00
   Mo   2.915909712590190E+00   6.181920714500660E+00   2.155041345698080E+01
   Mo   1.603312933428480E+00   4.445688599438100E+00   3.421080223317620E+00
    S   2.860919526108340E+00   5.509496601469400E+00   2.677101468626610E+01
    S   1.573911214318130E+00   7.581818228320110E-01   8.681532041686671E+00
    S   1.248317997932670E+00   2.712307065873050E+00   2.677104321194570E+01
    S  -3.893644951742550E-02   3.555415306416890E+00   8.681494568229660E+00
    S   2.915841159017790E+00   2.451509040278820E+00   1.998298699749320E+01
    S   1.603572814835130E+00   7.159163914668411E-01   1.840125866834050E+00
    S   1.303002655899260E+00   5.248709836489620E+00   1.998296587787700E+01
    S  -9.163322943163450E-03   3.513134556034600E+00   1.840120452218420E+00
    S   2.861412470703700E+00   5.508819774643440E+00   2.992916318767030E+01
    S   1.573310236001910E+00   7.587509162055061E-01   1.183678827265710E+01
    S   1.248808599628690E+00   2.711596404130250E+00   2.992912331074660E+01
    S  -3.953786532317490E-02   3.555931465689230E+00   1.183679723766470E+01
    S   2.916373285016030E+00   2.451672679844180E+00   2.313457733864500E+01
    S   1.602909667554470E+00   7.155619881847780E-01   5.002147380737390E+00
    S   1.303534949069280E+00   5.248903491771640E+00   2.313457773307380E+01
    S  -9.825887485492370E-03   3.512771589402120E+00   5.002161972103100E+00
