 &control

     calculation = 'scf',

     restart_mode='from_scratch',

     tprnfor=.true.

     prefix='MoS2',

     outdir='./tmp',

     max_seconds = 84500

     disk_io = 'none'

     pseudo_dir = '~/pseudo/',

 /

 &system

    ibrav = 0,

    nat =  24
    ntyp = 2

    ecutwfc = 45 , ecutrho = 360,

    occupations='smearing', smearing='mv', degauss=0.02

/

  &electrons

     diagonalization='david',

     mixing_mode  =  'local-TF',

     mixing_beta = 0.7

   /

   &ions

     ion_dynamics = 'bfgs'

  /

   &cell

     cell_dynamics = 'bfgs',

   /

 ATOMIC_SPECIES

 Mo  95.5     Mo.pw91-n-van.UPF

 S   32.065   S.pw91-van_ak.UPF

K_POINTS {automatic}
  3  5  1 0 0 0
  
CELL_PARAMETERS (angstrom)
   6.782985802942995E+00   0.000000000000000E+00   0.000000000000000E+00
  -1.694641391603643E+00   2.943630544463871E+00   0.000000000000000E+00
  -1.679702403089931E+00  -1.040956460635410E+00   2.448506046670563E+01
  
ATOMIC_POSITIONS (angstrom)
   Mo   3.527461585585290E-01   8.035623227437340E-01   9.097902509555320E+00
   Mo  -1.689322992730820E+00   6.165189994768300E-02   2.194396015713710E+01
   Mo   3.756749091789020E+00   7.114463074442390E-01   8.827392213564741E+00
   Mo   1.650266676903750E+00   1.327166630774150E-01   2.156967855006600E+01
   Mo  -3.149319988918750E-01  -1.233580237438760E+00   3.255250236282630E+00
   Mo  -1.591692831167540E+00  -1.762124554464590E+00   1.540066711076290E+01
   Mo   3.045135861975560E+00  -1.223794755974580E+00   2.823629755493680E+00
   Mo   1.786771606233740E+00  -1.826510989482040E+00   1.500935648357790E+01
    S   2.085277043861260E+00   1.828153315907100E+00   1.000642924165630E+01
    S  -1.720678786483710E-01   1.153285243129830E+00   2.274007223882090E+01
    S   5.539580464293390E+00   1.778786301125770E+00   1.007864330762560E+01
    S   3.167944756209080E+00   1.094665486424740E+00   2.283402679761690E+01
    S  -3.400491827722600E-01   7.272592574260420E-01   2.056701881313170E+00
    S  -1.567385404517800E+00   2.688820961728280E-01   1.415730831260650E+01
    S   3.039442927112690E+00   7.178929607628820E-01   1.962990885581220E+00
    S   1.839520613526770E+00   2.211332188657370E-01   1.416814096395890E+01
    S  -3.617612572690830E-01   2.677852707375160E+00   4.067962694279430E+00
    S  -1.590546562071590E+00   2.246723484061990E+00   1.620945653131480E+01
    S   3.013363461178850E+00   2.695788634155890E+00   4.114148341399380E+00
    S   1.863169926729600E+00   2.232168590564450E+00   1.629548884740020E+01
    S   2.039607092974130E+00  -1.722917898787040E-01   7.920187897020990E+00
    S  -2.475254009021740E-01  -8.746377663591210E-01   2.073600553752230E+01
    S   5.480904893299880E+00  -1.356809546262810E-01   7.935436845135360E+00
    S   3.182541414705540E+00  -8.929731112710030E-01   2.062229311115490E+01
