 &control

     calculation = 'scf',

     restart_mode='from_scratch',

     tprnfor=.true.

     prefix='MoS2',

     outdir='./tmp',

     max_seconds = 84500

     disk_io = 'none'

     nstep= 25

     pseudo_dir = '~/pseudo/',

 /

 &system

    ibrav = 0,

    nat =  36
    ntyp = 2

    ecutwfc = 45 , ecutrho = 360,

    occupations='smearing', smearing='mv', degauss=0.02

/

  &electrons

     diagonalization='david',

     mixing_mode  =  'local-TF',

     mixing_beta = 0.7

   /

   &ions

     ion_dynamics = 'bfgs'

  /

   &cell

     cell_dynamics = 'bfgs',

   /

 ATOMIC_SPECIES

 Mo  95.5     Mo.pw91-n-van.UPF

 S   32.065   S.pw91-van_ak.UPF

K_POINTS {automatic}
  3  2  1 0 0 0
  
CELL_PARAMETERS (angstrom)
   6.414720466442540E+00   0.000000000000000E+00   0.000000000000000E+00
  -2.495243539883666E-02   1.114810796715770E+01   0.000000000000000E+00
   4.329961995756980E+00   6.111592970025510E-01   3.283627687299800E+01
  
ATOMIC_POSITIONS (angstrom)
   Mo   4.176312342096750E+00   1.037905687759230E+01   2.045116583523380E+01
   Mo   9.006063572731451E+00   2.018072586541850E+00   2.045155321598240E+01
   Mo   7.383671139196520E+00   1.037909398169220E+01   2.045113944512180E+01
   Mo   5.798694938095820E+00   2.018053374280480E+00   2.045152717179030E+01
   Mo   7.396168349038350E+00   4.804931642522340E+00   2.045162373396650E+01
   Mo   4.188801419975590E+00   4.804922647325640E+00   2.045162317926260E+01
   Mo   5.786228688816930E+00   7.591857661623130E+00   2.045119973872940E+01
   Mo   8.993601515731971E+00   7.591836340965060E+00   2.045121696800070E+01
   Mo   5.667230772559470E+00   3.128558589175780E+00   9.250728409305230E+00
   Mo   2.206424863135020E+00   3.358237185395410E+00   9.259804840930871E+00
   Mo   4.119227528073740E+00   5.409309589748800E+00   8.708385829246820E+00
   Mo   6.935154146316250E+00   5.493154076272090E+00   8.747355543646449E+00
    S   8.988261637041580E+00   1.130984637024290E+01   2.202712681537280E+01
    S   4.183459537917310E+00   8.522953549387530E+00   2.202693232864130E+01
    S   5.780900516986430E+00   1.130984159048710E+01   2.202711762383810E+01
    S   7.390820591884800E+00   8.522993743341130E+00   2.202689854838660E+01
    S   5.519194523049420E+00   5.111653581213700E+00   1.055729250685770E+01
    S   5.537821915913310E+00   6.393009797290380E+00   7.016408226214360E+00
    S   2.570583307678340E+00   1.130933951331540E+01   1.887421958806580E+01
    S   4.180456272128770E+00   8.521818945176170E+00   1.887443207627570E+01
    S   5.777874193861610E+00   1.130930110455450E+01   1.887419842111540E+01
    S   7.387847154800160E+00   8.521836331652681E+00   1.887444575059430E+01
    S   6.286830300752400E+00   7.974775345899560E+00   8.582989749162641E+00
    S   4.208132648432130E+00   7.839684484820550E+00   8.889138599466520E+00
    S   7.403272891755750E+00   2.948960314222050E+00   2.202755857285110E+01
    S   4.195944739230070E+00   2.948960517258480E+00   2.202755883922610E+01
    S   7.400302290691600E+00   2.947727503998810E+00   1.887418468327670E+01
    S   4.192931101598310E+00   2.947717455198010E+00   1.887414342316860E+01
    S   5.790396921614200E+00   5.734253794981880E+00   1.887440992127950E+01
    S   2.583053536559870E+00   5.734249193515070E+00   1.887440093470830E+01
    S   7.246725702990130E+00   1.865977200244470E+00   1.050096523110650E+01
    S   3.913425766468370E+00   3.278759530834110E+00   7.536469211827420E+00
    S   5.793397044995130E+00   5.736170162368430E+00   2.202738666316920E+01
    S   9.000755410992779E+00   5.736138129116820E+00   2.202740771966360E+01
    S   7.125288664636610E+00   3.546469153103970E+00   7.429294224921170E+00
    S   2.329946308841620E+00   5.517617491293120E+00   1.038123026227590E+01
