 &control

     calculation = 'scf',

     restart_mode='from_scratch',

     tprnfor=.true.

     prefix='MoS2',

     outdir='./tmp',

     max_seconds = 84500

     disk_io = 'none'

     pseudo_dir = '~/pseudo/',

 /

 &system

    ibrav = 0,

    nat =  24
    ntyp = 2

    ecutwfc = 45 , ecutrho = 360,

    occupations='smearing', smearing='mv', degauss=0.02

/

  &electrons

     diagonalization='david',

     mixing_mode  =  'local-TF',

     mixing_beta = 0.7

   /

   &ions

     ion_dynamics = 'bfgs'

  /

   &cell

     cell_dynamics = 'bfgs',

   /

 ATOMIC_SPECIES

 Mo  95.5     Mo.pw91-n-van.UPF

 S   32.065   S.pw91-van_ak.UPF

K_POINTS {automatic}
  3  5  1 0 0 0
  
CELL_PARAMETERS (angstrom)
   6.699663600000001E+00   0.000000000000000E+00   0.000000000000000E+00
  -1.674915900000000E+00   2.901038700000000E+00   0.000000000000000E+00
   0.000000000000000E+00   0.000000000000000E+00   3.124590840000000E+01
  
ATOMIC_POSITIONS (angstrom)
   Mo   7.516875135327809E-02   2.069343489554860E+00   4.032382900900510E+00
   Mo   8.499940703312420E-02   1.938183542098100E+00   1.934770231575450E+01
   Mo   3.396465338567770E+00   1.960921698018590E+00   3.713120223900090E+00
   Mo   3.343498363633690E+00   2.125502003420810E+00   1.947127199905170E+01
   Mo   1.736166052818410E+00   9.890520161637950E-01   1.152810494515180E+01
   Mo   1.776509936487730E+00   1.014974981694040E+00   2.750563446261850E+01
   Mo   4.840605525552710E+00   1.032651389871710E+00   1.167499593373380E+01
   Mo   5.031813491951680E+00   9.789147968699330E-01   2.714064937465500E+01
    S   1.721136851796190E+00   8.392477597724470E-01   5.402101694659300E+00
    S   1.643662169639250E+00   1.094295841578970E+00   2.132289054517820E+01
    S   4.855542907187400E+00   9.224797493332710E-01   5.645748794274780E+00
    S   4.947992025964110E+00   9.706636195527820E-01   2.135646958053320E+01
    S  -1.655510586101460E-03   1.744277986176210E+00   1.342353177334780E+01
    S  -1.295049978310970E-01   1.796093229121190E+00   2.904813074548320E+01
    S   3.230461351120760E+00   1.817620032620400E+00   1.347080041634520E+01
    S   3.516885406052460E+00   2.002195262781030E+00   2.889701060688980E+01
    S   1.743777381680740E+00   1.057305097563660E+00   2.427247358786820E+00
    S   1.668627636043720E+00   1.058349671827510E+00   1.806337826489520E+01
    S   5.036249634010540E+00   1.163454624881970E+00   2.226860659495470E+00
    S   5.071772878235050E+00   9.794082228832171E-01   1.807956190241070E+01
    S  -7.145046967042690E-04   2.042166379803240E+00   1.024232890286710E+01
    S  -8.157245505391909E-03   1.734767828575410E+00   2.571218597101200E+01
    S   3.406892439445220E+00   1.857223360136750E+00   1.024971487874590E+01
    S   3.213878276834730E+00   1.859298245128500E+00   2.557081629527400E+01
