 &control

     calculation = 'scf',

     restart_mode='from_scratch',

     tprnfor=.true.

     prefix='MoS2',

     outdir='./tmp',

     max_seconds = 84500

     disk_io = 'none'

     pseudo_dir = '~/pseudo/',

 /

 &system

    ibrav = 0,

    nat =  24
    ntyp = 2

    ecutwfc = 45 , ecutrho = 360,

    occupations='smearing', smearing='mv', degauss=0.02

/

  &electrons

     diagonalization='david',

     mixing_mode  =  'local-TF',

     mixing_beta = 0.7

   /

   &ions

     ion_dynamics = 'bfgs'

  /

   &cell

     cell_dynamics = 'bfgs',

   /

 ATOMIC_SPECIES

 Mo  95.5     Mo.pw91-n-van.UPF

 S   32.065   S.pw91-van_ak.UPF

K_POINTS {automatic}
  3  3  1 0 0 0
  
CELL_PARAMETERS (angstrom)
   6.221116200000000E+00   0.000000000000000E+00   0.000000000000000E+00
  -3.110558100000000E+00   5.387643300000001E+00   0.000000000000000E+00
   0.000000000000000E+00   0.000000000000000E+00   1.450702890000000E+01
  
ATOMIC_POSITIONS (angstrom)
   Mo   1.131903601555040E-01   1.894253316851890E+00   3.759085127937740E+00
   Mo  -1.484138588938300E+00   4.664727525267870E+00   3.692373197722220E+00
   Mo   3.117598440784060E+00   1.911476511627940E+00   3.789816478356600E+00
   Mo   1.750469101158990E+00   4.492834272291340E+00   3.670236369049880E+00
   Mo   1.563998732821580E+00   8.957940128512411E-01   1.108007004957930E+01
   Mo  -9.490536584212440E-02   3.766711749847420E+00   1.086064982131370E+01
   Mo   4.499887893355680E+00   9.762461055236950E-01   1.080072026163840E+01
   Mo   3.170500215221100E+00   3.720759359676050E+00   1.073967782589920E+01
    S   1.575213366130650E+00   1.051151953069780E+00   5.025520758661180E+00
    S   6.016771553823870E-02   3.706316558636080E+00   5.305022355781300E+00
    S   4.859441709794100E+00   9.476821131152700E-01   5.145919163531960E+00
    S   3.071467615344520E+00   3.613170734760100E+00   4.957549103739430E+00
    S  -8.536670402911049E-02   1.745868042970700E+00   1.257984818881140E+01
    S  -1.489365214802610E+00   4.607111082216570E+00   1.255392123987800E+01
    S   2.931612133692210E+00   1.721458684134760E+00   1.245543097822710E+01
    S   1.520589701280340E+00   4.639993487126290E+00   1.227871652906880E+01
    S   1.371788536849690E+00   8.453850507085700E-01   2.160733352956500E+00
    S  -2.943128997660860E-02   3.558474633854940E+00   1.905993158915690E+00
    S   4.604033958153830E+00   9.760952456680090E-01   1.927582521492220E+00
    S   3.141306535461000E+00   3.693100837417030E+00   1.931333752302500E+00
    S   1.372172530263710E-01   1.690944910619110E+00   9.455302305869999E+00
    S  -1.610002950355770E+00   4.320359079312230E+00   9.263252187481701E+00
    S   3.132762649057460E+00   1.683214435105770E+00   9.190762938989980E+00
    S   1.704552671458790E+00   4.619960346768900E+00   9.327121207960250E+00
