 &control

     calculation = 'scf',

     restart_mode='from_scratch',

     tprnfor=.true.

     prefix='MoS2',

     outdir='./tmp',

     max_seconds = 84500

     disk_io = 'none'

     nstep= 8

     pseudo_dir = '~/pseudo/',

 /

 &system

    ibrav = 0,

    nat =  36
    ntyp = 2

    ecutwfc = 45 , ecutrho = 360,

    occupations='smearing', smearing='mv', degauss=0.02

/

  &electrons

     diagonalization='david',

     mixing_mode  =  'local-TF',

     mixing_beta = 0.7

   /

   &ions

     ion_dynamics = 'bfgs'

  /

   &cell

     cell_dynamics = 'bfgs',

   /

 ATOMIC_SPECIES

 Mo  95.5     Mo.pw91-n-van.UPF

 S   32.065   S.pw91-van_ak.UPF

K_POINTS {automatic}
  3  2  2 0 0 0
  
CELL_PARAMETERS (angstrom)
   6.249895668782310E+00   0.000000000000000E+00   0.000000000000000E+00
  -1.964096844863730E-01   1.110494949784100E+01   0.000000000000000E+00
  -1.946839799424270E+00  -1.926384780166030E+00   1.308240215195380E+01
  
ATOMIC_POSITIONS (angstrom)
   Mo   3.794751994639400E+00   8.827083220067371E+00   8.994316385556230E+00
   Mo  -8.469747923008220E-01   6.036104554688690E+00   8.985319117886750E+00
   Mo   6.704332465708780E-01   8.839254382584990E+00   9.018457653900390E+00
   Mo   2.286042997988440E+00   6.037166432496850E+00   8.975995742021111E+00
   Mo   7.696458258613050E-01   3.280597847240300E+00   8.954374185924101E+00
   Mo   3.890445092586730E+00   3.292901568894080E+00   8.952674288316880E+00
   Mo   2.352021164583260E+00   4.884003246112960E-01   9.013981366096710E+00
   Mo  -7.217859279689830E-01   4.869715157665990E-01   9.014960192359471E+00
   Mo   1.341474478422280E+00   2.841502144064180E+00   1.464139225159560E+00
   Mo   4.275980877463250E+00   2.521182859543410E+00   1.342067451326190E+00
   Mo   1.324596219567140E-01   8.077658824557430E+00   2.489996484865330E+00
   Mo   3.707535320628460E+00   8.184431790423281E+00   2.494715192676630E+00
    S  -8.863972908779680E-01   7.880965713166790E+00   1.057839986563980E+01
    S   3.946541658228810E+00  -4.438692077165750E-01   1.056970784894920E+01
    S   2.243214603209270E+00   7.878786113258680E+00   1.057642972967590E+01
    S   8.259612398348170E-01  -4.902328946508940E-01   1.079323593666670E+01
    S   5.250620642250390E+00   1.008340519655340E+01   1.789454958387250E+00
    S   1.872393999828860E+00   8.935376316477370E+00   3.829652966222040E+00
    S  -8.789385795014980E-01   7.888167157641940E+00   7.418621455468980E+00
    S   3.948330023980350E+00  -4.065351754050240E-01   7.419343674051550E+00
    S   2.229821652279060E+00   7.892981360682760E+00   7.404447929387160E+00
    S   8.182787036725639E-01  -4.477308795379740E-01   7.419006991591930E+00
    S   1.144930051376880E+00   5.117005816597780E+00   1.500330623352630E+00
    S   1.898853593761610E+00   7.064753084477410E+00   1.290592339438710E+00
    S   7.320453764343240E-01   5.105495218235410E+00   1.057680987584150E+01
    S   3.848241139365700E+00   5.105921466543240E+00   1.057027641540010E+01
    S   7.186182500423300E-01   5.114831281620480E+00   7.362212663833260E+00
    S   3.855234775556260E+00   5.122351096848430E+00   7.351246792984840E+00
    S   2.346700343576130E+00   2.305545924958090E+00   7.367734940424890E+00
    S  -7.990441364922281E-01   2.305618894815350E+00   7.371326464025260E+00
    S   6.000516357476060E+00   9.941111601203390E-01   1.554497363934250E+00
    S   7.082805314966060E-01   2.143139697171770E-01   1.280292088776500E+01
    S   2.339599630041250E+00   2.357296953040110E+00   1.055068415322080E+01
    S  -7.888228228425450E-01   2.359687114021590E+00   1.053995450125990E+01
    S  -2.611181320022870E+00   2.304472193759030E+00   1.396111079762750E+01
    S   2.930462691992580E+00   2.805257458807580E+00   3.145826393257660E+00
