 &control

     calculation = 'scf',

     restart_mode='from_scratch',

     tprnfor=.true.

     prefix='MoS2',

     outdir='./tmp',

     max_seconds = 84500

     disk_io = 'none'

     nstep= 12

     pseudo_dir = '~/pseudo/',

 /

 &system

    ibrav = 0,

    nat =  36
    ntyp = 2

    ecutwfc = 45 , ecutrho = 360,

    occupations='smearing', smearing='mv', degauss=0.02

/

  &electrons

     diagonalization='david',

     mixing_mode  =  'local-TF',

     mixing_beta = 0.7

   /

   &ions

     ion_dynamics = 'bfgs'

  /

   &cell

     cell_dynamics = 'bfgs',

   /

 ATOMIC_SPECIES

 Mo  95.5     Mo.pw91-n-van.UPF

 S   32.065   S.pw91-van_ak.UPF

K_POINTS {automatic}
  3  2  2 0 0 0
  
CELL_PARAMETERS (angstrom)
   6.261945872182860E+00   0.000000000000000E+00   0.000000000000000E+00
   1.177621087315000E+00   1.002877733171270E+01   0.000000000000000E+00
   1.089368022688990E+00   4.323462633230260E+00   1.152427793540700E+01
  
ATOMIC_POSITIONS (angstrom)
   Mo   3.899100066737010E+00   7.412980055852400E+00   4.087917888473680E+00
   Mo   2.746227343114860E+00   3.973747386099690E+00   1.003448053734290E+01
   Mo   4.222772228711040E+00   9.467882075034620E+00   9.556121267392561E+00
   Mo   5.550211955814450E+00   5.165517949141910E+00   9.718729257406659E+00
   Mo   5.516739194625600E+00   8.273434131473129E+00   6.548655200250500E+00
   Mo   6.049747252432760E+00   4.117084967296120E+00   6.993037604890350E+00
   Mo   7.355889109006100E+00   9.234802485894360E+00   9.422938117603261E+00
   Mo   6.766124816686880E+00   6.876446365684690E+00   3.887950851529090E+00
   Mo   6.535943700731590E+00   3.439202302331750E+00   4.243646494415620E+00
   Mo   1.712302679977720E+00   5.861408745050600E+00   4.768448581930550E-01
   Mo   3.319627227762550E+00   6.570707331541520E+00   1.130117540052020E+01
   Mo   2.213295486936000E+00   1.109382050832220E+01   5.331549111140430E+00
    S   4.366815874673140E+00   9.808530974741780E+00   4.985151678538060E+00
    S   7.429959927557380E+00   9.007357191916309E+00   5.147316908326270E+00
    S   3.462435718752380E+00   4.347888967832600E+00   2.463606125120590E-01
    S   4.118953370451350E+00   1.168325853821310E+01   1.061023765365380E+01
    S   5.552642080647340E+00   8.257341827912970E+00   2.388262625925330E+00
    S   7.415127912291930E+00   1.113621846723290E+01   1.096919444369650E+01
    S   2.737472735605200E+00   7.469984254632170E+00   8.983064780480120E+00
    S   1.293671461063410E+00   5.228891719219110E+00   1.113457328036890E+01
    S   3.897928645550010E+00   4.640150275749770E+00   8.074073270746990E+00
    S   3.523537886223150E+00   7.085095102658960E+00   6.291164320167330E+00
    S   3.361455188312620E+00   2.042078570428250E-01  -2.794086153033690E-02
    S   4.742325820563080E+00   5.296021815763710E+00   4.442131637992000E+00
    S   5.755506504328250E+00   1.026625644515660E+01   8.056335923955579E+00
    S   5.856835262403560E+00   7.367302594393470E+00   8.879762064808681E+00
    S   5.058885290076410E+00   2.166587172186580E+00   5.875985974490120E+00
    S   6.919101321339780E+00   3.315244621117560E+00   8.975254585772610E+00
    S   6.516246726148580E-01   1.538577695315180E+00   3.015639984664920E+00
    S   6.475817739796330E+00   3.906418033219450E+00   2.737670093713000E-01
    S   6.787079309995750E+00   6.267955342401170E+00   6.386405985259940E+00
    S   1.921198537724520E+00   3.312303272923360E+00   5.876451105868250E+00
    S   2.286122794326610E+00   7.554671189099990E+00   2.457789675527810E+00
    S   1.147213897397490E+00   4.993599025478850E+00   2.626001724345140E+00
    S   2.699471262328230E+00   1.059911427212900E+01   8.001622658733250E+00
    S   2.444043119838250E+00   2.254948647202430E+00   2.310016752303560E+00
