 &control

     calculation = 'relax',

     restart_mode='from_scratch',

     tprnfor=.true.

     prefix='MoS2',

     outdir='./tmp',

     max_seconds = 84500

     disk_io = 'none'

     pseudo_dir = '~/pseudo/',

     nstep= 4

 /

 &system

    ibrav = 0,

    nat =  24
    ntyp = 2

    ecutwfc = 45 , ecutrho = 360,

    occupations='smearing', smearing='mv', degauss=0.02

/

  &electrons

     diagonalization='david',

     mixing_mode  =  'local-TF',

     mixing_beta = 0.7

   /

   &ions

     ion_dynamics = 'bfgs'

  /

   &cell

     cell_dynamics = 'bfgs',

   /

 ATOMIC_SPECIES

 Mo  95.5     Mo.pw91-n-van.UPF

 S   32.065   S.pw91-van_ak.UPF

K_POINTS {automatic}
  3  3  1 0 0 0
  
CELL_PARAMETERS (angstrom)
   6.452372258117750E+00   0.000000000000000E+00   0.000000000000000E+00
   3.249596658192520E+00   5.581085831567750E+00   0.000000000000000E+00
   2.421230752037760E+00   1.087025255810860E+00   1.863156687045580E+01
  
ATOMIC_POSITIONS (angstrom)
   Mo   6.897059379427630E+00   7.249970621028300E-01   3.812099899902450E+00
   Mo   3.736795952639820E+00   8.567040954481770E-01   3.923606694301940E+00
   Mo   5.312768273424640E+00   3.523676791017440E+00   3.927427261896000E+00
   Mo   8.448785993041890E+00   3.530214746804570E+00   3.836547846820520E+00
   Mo   5.312234641277440E+00   5.778802153898940E+00   1.479940912922990E+01
   Mo   8.453785146405981E+00   5.996971136666250E+00   1.469686885716140E+01
   Mo   6.767676385817880E+00   3.161950983801280E+00   1.479204107184660E+01
   Mo   3.537297388389280E+00   3.031922399964550E+00   1.495006279471790E+01
    S   6.847752809258010E+00   2.596483674004580E+00   2.248500695795010E+00
    S   3.702652007930450E+00   2.683103149753950E+00   2.309359606485840E+00
    S   2.177453819652970E+00  -1.809615085867970E-01   2.349269508122440E+00
    S   5.236940141575260E+00  -1.675353446510850E-01   2.274787828799980E+00
    S   6.872452815837500E+00   6.718951136695190E+00   1.644698898439100E+01
    S   1.012650213453220E+01   6.840356339900910E+00   1.629200708289210E+01
    S   8.357990397584359E+00   4.193359256961230E+00   1.635211180315500E+01
    S   5.198658016896760E+00   4.000603657872940E+00   1.647847711593060E+01
    S   3.540834752734280E+00   1.285919722372320E+00   1.318745935433000E+01
    S   6.958280263046970E+00   1.285020884986030E+00   1.324489858797450E+01
    S   8.465870213821709E+00   4.014944621046390E+00   1.329088203891850E+01
    S   5.062267125646680E+00   3.911757029181460E+00   1.323226468025240E+01
    S   6.906230046587960E+00   2.521352427442050E+00   5.460796419247600E+00
    S   3.626552171166590E+00   2.727898781477550E+00   5.489316725845600E+00
    S   5.338616597163430E+00   5.450663542354080E+00   5.418817894334350E+00
    S   8.575188948341481E+00   5.386003679811990E+00   5.426769061915800E+00
