 &control

     calculation = 'scf',

     restart_mode='from_scratch',

     tprnfor=.true.

     prefix='MoS2',

     outdir='./tmp',

     max_seconds = 84500

     disk_io = 'none'

     nstep= 25

     pseudo_dir = '~/pseudo/',

 /

 &system

    ibrav = 0,

    nat =  30
    ntyp = 2

    ecutwfc = 45 , ecutrho = 360,

    occupations='smearing', smearing='mv', degauss=0.02

/

  &electrons

     diagonalization='david',

     mixing_mode  =  'local-TF',

     mixing_beta = 0.7

   /

   &ions

     ion_dynamics = 'bfgs'

  /

   &cell

     cell_dynamics = 'bfgs',

   /

 ATOMIC_SPECIES

 Mo  95.5     Mo.pw91-n-van.UPF

 S   32.065   S.pw91-van_ak.UPF

K_POINTS {automatic}
  3  2  1 0 0 0
  
CELL_PARAMETERS (angstrom)
   6.470319625941560E+00   0.000000000000000E+00   0.000000000000000E+00
  -1.610188029089390E+00   8.364012114430800E+00   0.000000000000000E+00
  -1.971338865109310E+00  -3.429283407138750E+00   2.157711840365190E+01
  
ATOMIC_POSITIONS (angstrom)
   Mo  -6.164530415928390E-01   4.776222054559720E+00   1.382723830408170E+01
   Mo   2.611859777285360E+00  -7.932778313440270E-01   1.382966064341730E+01
   Mo   3.320513232710250E+00   5.664208442485470E+00   5.954812043308790E+00
   Mo   2.893107284031930E+00   2.811112196887630E+00   4.929857269235490E+00
   Mo   4.206625321774380E+00   2.126891221295390E-01   5.510421621256130E+00
   Mo   9.985223206759030E-01   1.989703540075040E+00   1.382845721972680E+01
   Mo   4.228960048335340E+00   1.990957949647980E+00   1.383144346571670E+01
   Mo  -6.236330514317490E-01  -8.014394742408190E-01   1.382892825414740E+01
   Mo   2.615159442572220E+00   4.784940478933080E+00   1.382893041637920E+01
   Mo  -1.188510411655910E+00   3.600995851425560E+00   6.098221743299400E+00
    S   4.230581580074340E+00   3.850769598702720E+00   1.225048903839300E+01
    S   1.002736102867830E+00   3.849870874124920E+00   1.224909148632920E+01
    S   2.614869422087810E+00   1.066061973393290E+00   1.224834757179100E+01
    S   9.973718266890410E-01  -1.727669273342340E+00   1.540370989768150E+01
    S   4.225850182475320E+00  -1.719990713651140E+00   1.224895813368510E+01
    S  -1.898168504908950E+00   5.059717000184510E+00   7.781844900418250E+00
    S   1.350304521880860E+00   6.952924864412830E+00   6.438970461603620E+00
    S  -6.233812823575940E-01   1.060137982181710E+00   1.225352957185370E+01
    S   9.971481840499120E-01  -1.727118365117490E+00   1.225088198259640E+01
    S  -2.238664470614000E+00   3.856058457456160E+00   1.540325229165780E+01
    S   3.576030882490050E+00   1.100441003564870E+00   3.477274740644470E+00
    S   4.724184777722670E-01   2.305615227565120E+00   4.821463865717630E+00
    S   4.608257535290770E+00   7.626680078472230E+00   5.552605123654440E+00
    S   1.078646562669550E+00   4.468863598720190E+00   5.245691522132280E+00
    S   3.783821347427980E+00   1.981152471348220E+00   7.023051989555860E+00
    S   4.315009357189680E+00   4.510766099140060E+00   4.121031872671560E+00
    S   2.612870446088270E+00   1.066601830889370E+00   1.540981299932940E+01
    S   1.002246257901940E+00   3.851580370623430E+00   1.540451389585230E+01
    S   4.226519395650890E+00  -1.717970314937600E+00   1.540843307435040E+01
    S  -6.213277989150430E-01   1.060236007871210E+00   1.540393889419980E+01
