 &control

     calculation = 'scf',

     restart_mode='from_scratch',

     tprnfor=.true.

     prefix='MoS2',

     outdir='./tmp',

     max_seconds = 84500

     disk_io = 'none'

     nstep= 12

     pseudo_dir = '~/pseudo/',

 /

 &system

    ibrav = 0,

    nat =  42
    ntyp = 2

    ecutwfc = 45 , ecutrho = 360,

    occupations='smearing', smearing='mv', degauss=0.02

/

  &electrons

     diagonalization='david',

     mixing_mode  =  'local-TF',

     mixing_beta = 0.7

   /

   &ions

     ion_dynamics = 'bfgs'

  /

   &cell

     cell_dynamics = 'bfgs',

   /

 ATOMIC_SPECIES

 Mo  95.5     Mo.pw91-n-van.UPF

 S   32.065   S.pw91-van_ak.UPF

K_POINTS {automatic}
  2  2  2 0 0 0
  
CELL_PARAMETERS (angstrom)
   9.672289123072510E+00   0.000000000000000E+00   0.000000000000000E+00
   1.166438247871010E-01   9.818649607703669E+00   0.000000000000000E+00
   7.900072645899871E-02   1.437712350811530E-01   9.739848444289740E+00
  
ATOMIC_POSITIONS (angstrom)
   Mo   8.733183257111110E+00   3.893513475929510E+00   3.825180762233920E+00
   Mo   5.969702290779330E+00   1.122050592385720E+00   3.954767731847880E+00
   Mo   8.696590160739801E+00   1.535707092841280E+00   1.263328229680430E+00
   Mo   5.863788358005910E+00   3.825612809199050E+00   1.067681948671140E+00
   Mo   3.825945209418340E+00   3.918698283370430E+00   8.739973979758600E+00
   Mo   1.395272155530890E+00   1.714621905966320E+00   8.564227703980920E+00
   Mo   3.903202553396220E+00   1.193579650787270E+00   5.895645741355460E+00
   Mo   1.099803525617070E+00   3.971295669219510E+00   5.885173506423870E+00
   Mo   5.718867681572310E+00   6.017185862289100E+00   8.686266679557381E+00
   Mo   8.654287196150840E+00   5.998094662423570E+00   5.731781173398640E+00
   Mo   5.988191954686250E+00   8.789064125976999E+00   5.834012636351400E+00
   Mo   3.888954206111900E+00   8.783789705030840E+00   4.061178417077960E+00
   Mo   1.111101672355360E+00   5.962761876929080E+00   3.713398014241840E+00
   Mo   3.748868575262120E+00   5.732634906025280E+00   1.127142698482790E+00
    S   8.498382971394459E+00   1.356144063370210E+00   3.626527270993300E+00
    S   6.225350278549080E+00   3.552240715109460E+00   3.455515162795910E+00
    S   6.301683271368740E+00   3.684295626887230E+00   8.404023277520841E+00
    S   8.995237756040320E+00   6.002392817860200E-01   8.898046928431750E+00
    S   6.265186612453750E+00   1.285246905684230E+00   6.255934370153520E+00
    S   8.394115777319470E+00   3.651746551791730E+00   6.221723158844460E+00
    S   8.426513340262741E+00   8.465573396407340E+00   5.991250302871310E+00
    S   3.732703494811080E+00   1.403597760957680E+00   8.416820566238851E+00
    S   1.360489382020120E+00   3.952982379589440E+00   8.439174092177080E+00
    S   1.406421457894180E+00   3.542135901336220E+00   3.545372547926210E+00
    S   3.623081213808820E+00   1.319528468949590E+00   3.526081488595130E+00
    S   1.352430848806500E+00   9.876855682692650E-01   1.188131342904270E+00
    S   3.532946757119660E+00   3.442622997012620E+00   1.382632558560780E+00
    S   6.287299112850650E+00   6.210949401170530E+00   6.172559230887550E+00
    S   8.352275875555151E+00   3.840928507153280E+00   1.287417812039650E+00
    S   6.061947988013910E+00   8.523907400469930E+00   8.416138650405500E+00
    S   6.192517645611240E+00   8.621161685723980E+00   3.495303220615050E+00
    S   8.472429734665569E+00   6.262540587808670E+00   3.360322854818940E+00
    S   6.105088867199770E+00   6.203475931649340E+00   1.226539125642310E+00
    S   6.149368119900470E+00   1.377174443240080E+00   1.380500704673720E+00
    S   3.688884390507040E+00   6.352159576517950E+00   3.465257588425830E+00
    S   3.593921327149280E+00   3.652481165745890E+00   6.140692261134840E+00
    S   1.475620927762170E+00   8.420358755286140E+00   3.622512153428380E+00
    S   1.378621276639770E+00   6.130972262117540E+00   1.258317048336400E+00
    S   3.499734470811210E+00   6.348882056152860E+00   8.560289385422880E+00
    S   1.309460557271440E+00   6.285043138414650E+00   6.073979546435240E+00
    S   3.563766688195970E+00   8.695460059278121E+00   6.265126933634320E+00
    S   1.400996474850510E+00   1.480331294570810E+00   6.158469879223000E+00
