 &control

     calculation = 'scf',

     restart_mode='from_scratch',

     tprnfor=.true.

     prefix='MoS2',

     outdir='./tmp',

     max_seconds = 84500

     disk_io = 'none'

     nstep= 12

     pseudo_dir = '~/pseudo/',

 /

 &system

    ibrav = 0,

    nat =  24
    ntyp = 2

    ecutwfc = 45 , ecutrho = 360,

    occupations='smearing', smearing='mv', degauss=0.02

/

  &electrons

     diagonalization='david',

     mixing_mode  =  'local-TF',

     mixing_beta = 0.7

   /

   &ions

     ion_dynamics = 'bfgs'

  /

   &cell

     cell_dynamics = 'bfgs',

   /

 ATOMIC_SPECIES

 Mo  95.5     Mo.pw91-n-van.UPF

 S   32.065   S.pw91-van_ak.UPF

K_POINTS {automatic}
  3  2  2 0 0 0
  
CELL_PARAMETERS (angstrom)
   6.353956502255850E+00   0.000000000000000E+00   0.000000000000000E+00
   3.197310057590690E+00   1.210959263249280E+01   0.000000000000000E+00
   5.136532578973310E-01   1.716334440158090E+00   1.424801059514570E+01
  
ATOMIC_POSITIONS (angstrom)
   Mo   6.936246884779020E+00   4.478442768391130E+00   8.148166681958770E+00
   Mo   8.639251836479190E+00   1.305225025128290E+01   1.000962176703690E+01
   Mo   5.296848555043030E+00   7.077055472432480E+00   8.415870804392950E+00
   Mo   2.150468018720940E+00   7.106755535945420E+00   8.427826913435689E+00
   Mo   3.757160818033640E+00   1.052338862932640E+01   9.907249554351409E+00
   Mo   3.732167264174300E+00   4.522125351939380E+00   8.225798107755180E+00
   Mo   5.219548192754260E+00   1.309378756272530E+01   1.005935398783060E+01
   Mo   6.949514532132230E+00   1.064261247573930E+01   9.998706793290120E+00
    S   5.394854778003570E+00   9.429433581598250E+00   8.509735674620480E+00
    S   5.875525507506580E-01   1.476366732991500E+00   1.195085281350130E+01
    S   8.550547455902340E+00   9.537438717818480E+00   1.150618899024430E+01
    S   6.939095218682630E+00   1.242423351149500E+01   1.162028179277380E+01
    S   5.376250870635520E+00   3.462647810606940E+00   6.642389769208380E+00
    S   2.143087138400930E+00   3.497607863909340E+00   6.600682190682750E+00
    S   5.330325862415470E+00   9.559728282138339E+00   1.157895710288160E+01
    S   3.804030261929840E+00   1.228614211053790E+01   8.293377659325071E+00
    S   6.930928055977620E+00   6.476400166486380E+00   6.768923431119640E+00
    S   6.911040351625820E+00   6.170165334699450E+00   9.968183876846210E+00
    S   8.540492158138720E+00   9.399920524062360E+00   8.481903401842290E+00
    S   6.927248631123490E+00   1.244767732970280E+01   8.364644435610201E+00
    S   3.736388132288360E+00   6.517879275609270E+00   6.709762003532520E+00
    S   5.315013717088010E+00   3.295951624686290E+00   9.672725860936559E+00
    S   3.759576345934910E+00   6.185412562615200E+00   1.003740197687360E+01
    S   2.144490169273740E+00   3.334404739758680E+00   9.652199784566641E+00
