 &control

     calculation = 'relax',

     restart_mode='from_scratch',

     tprnfor=.true.

     prefix='MoS2',

     outdir='./tmp',

     max_seconds = 84500

     disk_io = 'none'

     pseudo_dir = '~/pseudo/',

     nstep= 4

 /

 &system

    ibrav = 0,

    nat =  24
    ntyp = 2

    ecutwfc = 45 , ecutrho = 360,

    occupations='smearing', smearing='mv', degauss=0.02

/

  &electrons

     diagonalization='david',

     mixing_mode  =  'local-TF',

     mixing_beta = 0.7

   /

   &ions

     ion_dynamics = 'bfgs'

  /

   &cell

     cell_dynamics = 'bfgs',

   /

 ATOMIC_SPECIES

 Mo  95.5     Mo.pw91-n-van.UPF

 S   32.065   S.pw91-van_ak.UPF

K_POINTS {automatic}
  3  3  1 0 0 0
  
CELL_PARAMETERS (angstrom)
   6.473093929137020E+00   0.000000000000000E+00   0.000000000000000E+00
  -3.241934668487420E+00   5.578983950014280E+00   0.000000000000000E+00
  -2.034977047502770E+00  -2.377437489354160E+00   1.883950029128150E+01
  
ATOMIC_POSITIONS (angstrom)
   Mo  -4.411366340135960E+00   3.526219782980920E+00   1.475295282805830E+01
   Mo   4.542942606424430E-01   7.303797963200310E-01   1.465081659505160E+01
   Mo  -2.780929240775770E+00   7.526787387913310E-01   1.467480481573760E+01
   Mo  -1.157175648633970E+00   3.528992055493180E+00   1.467927704143280E+01
   Mo   5.570236203577140E+00  -3.176437154793100E-01   4.063023536716380E+00
   Mo   7.421338854350750E-01   2.474366028222540E+00   4.151845749625020E+00
   Mo   3.959357227356990E+00   2.483237025400700E+00   4.018148017500980E+00
   Mo   2.347727140502510E+00  -3.484612969561860E-01   4.148462172010550E+00
    S  -2.760211740878820E+00   2.604386292431300E+00   1.628316134645910E+01
    S   2.067592042966700E+00  -1.745584898747310E-01   1.623910578421860E+01
    S  -1.166610014112820E+00  -1.384374406300120E-01   1.626541105474650E+01
    S   4.170312432521890E-01   2.563630285015380E+00   1.627244559128050E+01
    S   7.704939748426120E-01   6.185334837418820E-01   2.565069120875150E+00
    S   2.296021322987000E+00   3.399325466854020E+00   2.487533824786220E+00
    S  -8.233073059030590E-01   3.401580264641800E+00   2.524516935880350E+00
    S   3.915557278259200E+00   5.727186063663390E-01   2.502297925359970E+00
    S   6.933164425844250E-01   5.838327845325280E-01   5.688445749685110E+00
    S   2.401088002156050E+00   3.428182535047870E+00   5.656296661468260E+00
    S  -9.391565184188280E-01   3.349573711575230E+00   5.689567627514000E+00
    S   3.980004108653700E+00   6.618343999894190E-01   5.637956792213200E+00
    S  -2.807312551744200E+00   2.628205554952400E+00   1.313454305237120E+01
    S   2.094940747815800E+00  -2.003303188283070E-01   1.309248318269390E+01
    S  -1.175472940668830E+00  -2.448227303878560E-01   1.312133222680280E+01
    S   4.873950923564050E-01   2.610024430839970E+00   1.311749480972710E+01
