 &control

     calculation = 'scf',

     restart_mode='from_scratch',

     tprnfor=.true.

     prefix='MoS2',

     outdir='./tmp',

     max_seconds = 84500

     disk_io = 'none'

     pseudo_dir = '~/pseudo/',

 /

 &system

    ibrav = 0,

    nat =  12
    ntyp = 2

    ecutwfc = 45 , ecutrho = 360,

    occupations='smearing', smearing='mv', degauss=0.02

/

  &electrons

     diagonalization='david',

     mixing_mode  =  'local-TF',

     mixing_beta = 0.7

   /

   &ions

     ion_dynamics = 'bfgs'

  /

   &cell

     cell_dynamics = 'bfgs',

   /

 ATOMIC_SPECIES

 Mo  95.5     Mo.pw91-n-van.UPF

 S   32.065   S.pw91-van_ak.UPF

K_POINTS {automatic}
  3  3  3 0 0 0
  
CELL_PARAMETERS (angstrom)
   6.509328800825866E+00   0.000000000000000E+00   0.000000000000000E+00
  -3.224859456820577E+00   5.664049163852744E+00   0.000000000000000E+00
   6.230833701167632E-02   1.544563926720773E-01   4.995055357851780E+00
  
ATOMIC_POSITIONS (angstrom)
   Mo   2.827331749179420E-02   2.100441342087750E-02   3.325447087308490E-02
   Mo  -1.619775007059750E+00   2.818414266425430E+00  -8.044243069336010E-02
   Mo   3.296108954379570E+00   4.068047838532180E-03  -9.005983783457680E-02
   Mo   1.619207276329480E+00   2.859210063791000E+00   1.414645454600510E-01
    S  -2.692526464147800E-03   2.094085810108310E+00   1.246359835757150E+00
    S  -1.930975120353550E+00   4.951427641909280E+00   1.237628457201630E+00
    S   3.111083746804000E+00   1.967829973193710E+00   1.298188381782890E+00
    S   1.683242462495790E+00   4.915001639602830E+00   1.235086353943800E+00
    S   9.780488660590510E-02   1.787460694833360E+00   3.732554430573920E+00
    S  -1.215924223887550E+00   4.629187964869270E+00   3.745760239198770E+00
    S   3.492710331462900E+00   1.965509140554390E+00   3.754097749349660E+00
    S   1.601729364630840E+00   4.651773111975550E+00   3.722112487988220E+00
