 &control

     calculation = 'scf',

     restart_mode='from_scratch',

     tprnfor=.true.

     prefix='MoS2',

     outdir='./tmp',

     max_seconds = 84500

     disk_io = 'none'

     pseudo_dir = '~/pseudo/',

 /

 &system

    ibrav = 0,

    nat =  36
    ntyp = 2

    ecutwfc = 45 , ecutrho = 360,

    occupations='smearing', smearing='mv', degauss=0.02

/

  &electrons

     diagonalization='david',

     mixing_mode  =  'local-TF',

     mixing_beta = 0.7

   /

   &ions

     ion_dynamics = 'bfgs'

  /

   &cell

     cell_dynamics = 'bfgs',

   /

 ATOMIC_SPECIES

 Mo  95.5     Mo.pw91-n-van.UPF

 S   32.065   S.pw91-van_ak.UPF

K_POINTS {automatic}
  3  3  1 0 0 0
  
CELL_PARAMETERS (angstrom)
   6.655574883411030E+00   0.000000000000000E+00   0.000000000000000E+00
  -3.337896264604913E+00   5.781651290522004E+00   0.000000000000000E+00
  -3.092110090379727E+00  -2.534777602863488E+00   1.696595839051623E+01
  
ATOMIC_POSITIONS (angstrom)
   Mo   1.136890388926820E+00   9.369918363973641E-01   5.181279295019390E+00
   Mo  -6.503623754231840E-01   3.761611770256360E+00   5.216149969062080E+00
   Mo   4.415803377552130E+00   7.557872310014629E-01   5.604728955841030E+00
   Mo   2.568439837882420E+00   3.256146185664400E+00   6.536564550895590E+00
   Mo  -1.944198658600690E+00  -6.025225826901720E-01   1.132794646736350E+01
   Mo  -3.591078389134470E+00   2.346865106108910E+00   1.107907215310260E+01
   Mo   1.477899942686820E+00  -4.711330810648960E-01   1.168233834019780E+01
   Mo  -2.532583762927710E-01   2.410419985818170E+00   1.079008586665010E+01
   Mo  -3.516951729730400E+00  -2.664384319359310E+00   1.642041412411580E+01
   Mo  -5.506961423132080E+00   1.913755975107060E-01   1.776392763242980E+01
   Mo  -4.914412014375030E-01  -2.810371328912350E+00   1.768054154221420E+01
   Mo  -1.785216021138930E+00   1.361770096710690E-01   1.656843611499870E+01
    S  -8.044611980028210E-01   1.543231681997970E+00   7.790115789757370E-01
    S  -2.359095349510670E+00   4.702672471953240E+00   1.718897484169490E+00
    S   2.587420447180000E+00   1.714495900058210E+00   1.577958724784010E+00
    S   8.786677395562520E-01   4.397493584328750E+00   9.449057075255090E-01
    S  -6.267513086280010E-01   9.911186510097230E-01   4.373704371445010E+00
    S  -2.422624025435680E+00   3.123648993220830E+00   4.729486488232880E+00
    S   2.796296369606610E+00   3.523931914730830E-02   4.164653785161650E+00
    S   1.379583143611400E+00   3.074558720358740E+00   4.707252029356470E+00
    S  -1.155058999659890E+00  -5.803656902114540E-01   6.688774166823470E+00
    S  -2.482855739521760E+00   2.083611014588360E+00   7.019074565706770E+00
    S   2.292891052271240E+00  -6.146730717273500E-01   6.430242876342290E+00
    S   9.029934084612909E-01   2.181589604335930E+00   6.912320081136770E+00
    S  -6.240034433228820E-01  -1.702422728622890E+00   1.012698832422590E+01
    S  -1.934562875433480E+00   1.097775154280530E+00   1.020613845238320E+01
    S   2.889503428209620E+00  -1.562801577776310E+00   1.017926465817020E+01
    S   1.488837643198290E+00   9.835379296893760E-01   1.026324022478950E+01
    S  -3.346760272872550E-01   1.223213624070720E-01   1.246320387799860E+01
    S  -1.936560804564270E+00   3.250915855296840E+00   1.205006089220440E+01
    S   3.061024667755460E+00   6.217421110110640E-01   1.233530418905430E+01
    S   1.165098892335880E+00   3.244717231122920E+00   1.206328463119860E+01
    S  -2.659253841045990E+00  -1.216804026652460E+00   1.539920803521050E+01
    S  -4.966048228120500E+00   1.866364885543820E+00   1.635038125076370E+01
    S   2.071756659670770E-01  -8.561565191450030E-01   1.625139233154430E+01
    S  -1.259774357518110E+00   1.689882570102240E+00   1.544116305636100E+01
