 &control

     calculation = 'relax',

     restart_mode='from_scratch',

     tprnfor=.true.

     prefix='MoS2',

     outdir='./tmp',

     max_seconds = 84500

     disk_io = 'none'

     pseudo_dir = '~/pseudo/',

     nstep= 4

 /

 &system

    ibrav = 0,

    nat =  24
    ntyp = 2

    ecutwfc = 45 , ecutrho = 360,

    occupations='smearing', smearing='mv', degauss=0.02

/

  &electrons

     diagonalization='david',

     mixing_mode  =  'local-TF',

     mixing_beta = 0.7

   /

   &ions

     ion_dynamics = 'bfgs'

  /

   &cell

     cell_dynamics = 'bfgs',

   /

 ATOMIC_SPECIES

 Mo  95.5     Mo.pw91-n-van.UPF

 S   32.065   S.pw91-van_ak.UPF

K_POINTS {automatic}
  5  3  1 0 0 0
  
CELL_PARAMETERS (angstrom)
   3.231003052050880E+00   0.000000000000000E+00   0.000000000000000E+00
  -2.125552410766958E-02   5.584356719507150E+00   0.000000000000000E+00
  -3.266859663822160E+00   1.006752303075010E+00   2.970908446787880E+01
  
ATOMIC_POSITIONS (angstrom)
   Mo   1.319452447109740E-01   4.098110640818530E+00   4.407587332519290E+00
   Mo  -1.892601554912910E+00   5.519478186564470E+00   1.820481009889700E+01
   Mo   1.729136853798070E+00   1.137586342622710E+00   4.182041064342030E+00
   Mo  -2.841469260312410E-01   2.796966544658750E+00   1.814165607230100E+01
   Mo  -4.941882154231160E-01   5.032415685877140E+00   1.086744820782870E+01
   Mo  -1.110462751159850E+00   4.341701273953820E+00   2.615550538511170E+01
   Mo   1.099619697813250E+00   2.081526449836100E+00   1.095875654217190E+01
   Mo   5.765062680531320E-01   1.452783736034040E+00   2.595666425793670E+01
    S   1.754213163596000E+00   2.971066738670380E+00   5.831181685203230E+00
    S  -2.839648507097090E-01   4.608616980802700E+00   1.979138186505300E+01
    S   1.192569544633820E-01   4.244430035562600E-01   5.926729631007390E+00
    S  -1.905124914229020E+00   1.858919692048790E+00   1.971362109843160E+01
    S   1.116018539904860E+00   5.834246218656660E+00   1.253482609850790E+01
    S   5.229641450276710E-01   5.309088129272130E+00   2.772140721437020E+01
    S  -5.209953289173920E-01   3.159415724068590E+00   1.243662764923220E+01
    S  -1.016991363066140E+00   2.350245207155500E+00   2.755858590695580E+01
    S   1.753250513287400E+00   3.173882698883120E+00   2.828419467797090E+00
    S  -2.662962622538700E-01   4.657450311374480E+00   1.657168434176620E+01
    S   9.776766849228800E-02   5.787548300408360E+00   2.609158525646900E+00
    S  -1.892673491691940E+00   1.794842334516690E+00   1.660816274572650E+01
    S   1.115778044747900E+00   5.884849667597310E+00   9.221181970670621E+00
    S   4.884601089151910E-01   5.113954378054200E+00   2.448099272190280E+01
    S  -5.226565249340250E-01   3.059952572580610E+00   9.411703049178950E+00
    S  -1.061958488453710E+00   2.519221327722990E+00   2.448793513616280E+01
