 &control

     calculation = 'scf',

     restart_mode='from_scratch',

     tprnfor=.true.

     prefix='MoS2',

     outdir='./tmp',

     max_seconds = 84500

     disk_io = 'none'

     pseudo_dir = '~/pseudo/',
     nstep= 30

 /

 &system

    ibrav = 0,

    nat =  24
    ntyp = 2

    ecutwfc = 45 , ecutrho = 360,

    occupations='smearing', smearing='mv', degauss=0.02

/

  &electrons

     diagonalization='david',

     mixing_mode  =  'local-TF',

     mixing_beta = 0.7

   /

   &ions

     ion_dynamics = 'bfgs'

  /

   &cell

     cell_dynamics = 'bfgs',

   /

 ATOMIC_SPECIES

 Mo  95.5     Mo.pw91-n-van.UPF

 S   32.065   S.pw91-van_ak.UPF

K_POINTS {gamma}
  
CELL_PARAMETERS (angstrom)
  19.253721366  -0.061446641  -0.124982859
  -0.060865080  19.745813141  -0.022644231
  -0.069698520   0.500363325  18.340504603

ATOMIC_POSITIONS (angstrom)
Mo       6.743062776  11.390169985   8.373966700
Mo       9.132140021  10.089529964   7.536160947
Mo       7.509372502  10.458741250  11.488077860
Mo       8.672502124  12.622128803   6.691441647
Mo       7.896561658   7.344174918   8.111479822
Mo      10.162030486  10.444684286  10.520235868
Mo       9.018560455   8.033842862  11.521222681
Mo      11.537548589  12.247436345   8.252621963
S       13.450324727  12.547491348   7.318054120
S       11.386221146   9.841913152   8.399603117
S        9.139859710  11.927258407  12.102935509
S        6.588399982   9.361612323   7.294988360
S        8.732676453   6.174458429  10.035817873
S        7.629744202   8.895603680  13.220524877
S       10.463726550  14.055106198   6.985222916
S        5.671299424  11.529143278  10.528541466
S        8.886307867  12.185748601   8.990645705
S        8.221688059   9.168082968   9.711368865
S       11.155183670   8.796162524  11.909083061
S        6.555231816   5.968479193   7.131913861
S        6.338547422  12.877153654   6.625698600
S        9.213567155  10.903491044   5.282025309
S        9.572657163   7.766682224   6.683038892
S       11.956154651  12.261811381  10.476773038
