 &control

     calculation = 'scf',

     restart_mode='from_scratch',

     tprnfor=.true.

     prefix='MoS2',

     outdir='./tmp',

     max_seconds = 84500

     disk_io = 'none'

     pseudo_dir = '~/pseudo/',

 /

 &system

    ibrav = 0,

    nat =  36
    ntyp = 2

    ecutwfc = 45 , ecutrho = 360,

    occupations='smearing', smearing='mv', degauss=0.02

/

  &electrons

     diagonalization='david',

     mixing_mode  =  'local-TF',

     mixing_beta = 0.7

   /

   &ions

     ion_dynamics = 'bfgs'

  /

   &cell

     cell_dynamics = 'bfgs',

   /

 ATOMIC_SPECIES

 Mo  95.5     Mo.pw91-n-van.UPF

 S   32.065   S.pw91-van_ak.UPF

K_POINTS {automatic}
  3  3  1 0 0 0
  
CELL_PARAMETERS (angstrom)
   6.381288000000000E+00   0.000000000000000E+00   0.000000000000000E+00
  -3.190644000000000E+00   5.526358000000000E+00   0.000000000000000E+00
   0.000000000000000E+00   0.000000000000000E+00   2.131820000000000E+01
  
ATOMIC_POSITIONS (angstrom)
   Mo   1.546241578546370E+00   7.999132370993230E-01   6.949929509443570E+00
   Mo  -1.330298984260410E-01   3.567556985309290E+00   7.008094970377240E+00
   Mo   4.719190759528120E+00   1.064445737299390E+00   7.223702598755480E+00
   Mo   3.287327507763050E+00   3.675491519066220E+00   7.276165864289750E+00
   Mo   1.742727694137360E-01   1.828681790324790E+00   1.430458655013870E+01
   Mo  -1.705939132642090E+00   4.558548953556670E+00   1.404745333140590E+01
   Mo   3.208745218741560E+00   1.926755289721980E+00   1.438768955597580E+01
   Mo   1.583026671229430E+00   4.588273305632890E+00   1.400849208372780E+01
   Mo  -6.987616647785640E-02   1.137028383117720E-01   2.116448636256640E+01
   Mo  -1.524207164583180E+00   2.659470340723190E+00   2.115792371446700E+01
   Mo   3.194413876857190E+00  -4.037487997513420E-02   2.150929204492180E+01
   Mo   1.763063376168780E+00   2.750451413619170E+00   2.142161645910240E+01
    S   1.829827458572130E-01   1.914993678942730E+00   1.595265192805180E+00
    S  -1.518847728780200E+00   4.426168069979450E+00   1.605960206418380E+00
    S   3.119698739995330E+00   1.872035527496920E+00   1.375948655688620E+00
    S   1.584155615467100E+00   4.615271951985520E+00   1.759973821404740E+00
    S   3.530685376489460E-02   3.766806013859510E-02   5.342859233864760E+00
    S  -1.623190654893000E+00   2.729471210662800E+00   5.731239946369040E+00
    S   3.262672280945000E+00   1.127545014748090E-01   5.684735856530730E+00
    S   1.760397455009110E+00   2.650549530024450E+00   5.528037299034770E+00
    S   1.864046872496700E-01  -3.920204548231320E-02   8.605631397366500E+00
    S  -1.575622640426790E+00   2.957385394434300E+00   8.710135355608051E+00
    S   3.153247228958860E+00  -5.345412417607440E-02   8.855655639059719E+00
    S   1.677441066721180E+00   2.864340548984280E+00   8.818327096266040E+00
    S   1.487267401773000E+00   9.359585903135330E-01   1.280977635726570E+01
    S   1.670012365742720E-01   3.574494539171510E+00   1.263392149501030E+01
    S   4.744289972630440E+00   1.015202694110630E+00   1.281360425137990E+01
    S   3.321802061922120E+00   3.545103366266400E+00   1.258349213001700E+01
    S   1.724404618808620E+00   1.071464751396550E+00   1.574589352678800E+01
    S   3.725408021134900E-02   3.769671027892680E+00   1.559569805210090E+01
    S   4.966763428403750E+00   1.005560385970720E+00   1.578578181219790E+01
    S   3.166943502193030E+00   3.652151490383170E+00   1.596863533091270E+01
    S   7.217710828142020E-02   1.785942297180700E+00   1.957036090161200E+01
    S  -1.792393331901730E+00   4.614547063279860E+00   1.978105402495040E+01
    S   3.074878278622500E+00   1.983679235694040E+00   1.966722905069520E+01
    S   1.567269075469800E+00   4.657417272830180E+00   1.993926260960170E+01
