 &control

     calculation = 'scf',

     restart_mode='from_scratch',

     tprnfor=.true.

     prefix='MoS2',

     outdir='./tmp',

     max_seconds = 84500

     disk_io = 'none'

     pseudo_dir = '~/pseudo/',

 /

 &system

    ibrav = 0,

    nat =  24
    ntyp = 2

    ecutwfc = 45 , ecutrho = 360,

    occupations='smearing', smearing='mv', degauss=0.02

/

  &electrons

     diagonalization='david',

     mixing_mode  =  'local-TF',

     mixing_beta = 0.7

   /

   &ions

     ion_dynamics = 'bfgs'

  /

   &cell

     cell_dynamics = 'bfgs',

   /

 ATOMIC_SPECIES

 Mo  95.5     Mo.pw91-n-van.UPF

 S   32.065   S.pw91-van_ak.UPF

K_POINTS {automatic}
  3  3  2 0 0 0
  
CELL_PARAMETERS (angstrom)
   6.226190100000000E+00   0.000000000000000E+00   0.000000000000000E+00
  -3.113095050000000E+00   5.392038599999999E+00   0.000000000000000E+00
   0.000000000000000E+00   0.000000000000000E+00   1.363319880000000E+01
  
ATOMIC_POSITIONS (angstrom)
   Mo  -5.524877903929290E-02   2.473702772766850E-02   1.014530229181110E+01
   Mo  -1.531062883446680E+00   2.600481489076360E+00   1.020996391574210E+01
   Mo   3.082911077989250E+00   5.248658472724620E-02   1.030448607291220E+01
   Mo   1.567933105978040E+00   2.610036240844210E+00   1.017512679762200E+01
   Mo  -8.142394470617980E-04  -4.454512246573580E-03   3.308402280940410E+00
   Mo  -1.634317106988510E+00   2.725493453487860E+00   3.352773432400720E+00
   Mo   3.169343218641540E+00   5.482201901602130E-02   3.346407133762370E+00
   Mo   1.477802815927680E+00   2.689152163139780E+00   3.347045204455120E+00
    S   1.532633981685220E+00   9.571650476085900E-01   1.167443745196590E+01
    S   5.684888131811250E-02   3.670372055494060E+00   1.178420204491400E+01
    S   4.746720967569770E+00   8.680667056869850E-01   1.169606104341140E+01
    S   3.017216791021020E+00   3.569100190493180E+00   1.176427480331700E+01
    S  -1.816439316994140E-02   1.836846767155640E+00   1.791203821499480E+00
    S  -1.581613688119610E+00   4.589092136717750E+00   1.895693020255130E+00
    S   3.097315549523610E+00   1.793755383975840E+00   1.979940831610590E+00
    S   1.551050088185240E+00   4.480767474729130E+00   1.980309542854060E+00
    S   2.655863467470420E-02   1.802333258908710E+00   4.839061411959910E+00
    S  -1.523377505033230E+00   4.493012355694410E+00   4.841003390922530E+00
    S   3.113112903106810E+00   1.806706736844320E+00   4.835779643921500E+00
    S   1.562628769195440E+00   4.516277176357620E+00   5.032490526977940E+00
    S   1.569004326038670E+00   9.277559700951610E-01   8.602995069674160E+00
    S   1.673861336340960E-02   3.595426558300050E+00   8.796444801141121E+00
    S   4.655011348506480E+00   9.966460726433030E-01   8.684183260849011E+00
    S   3.149973200502260E+00   3.618917080937150E+00   8.787597971307351E+00
