 &control

     calculation = 'relax',

     restart_mode='from_scratch',

     tprnfor=.true.

     prefix='MoS2',

     outdir='./tmp',

     max_seconds = 84500

     disk_io = 'none'

     pseudo_dir = '~/pseudo/',

     nstep= 4

 /

 &system

    ibrav = 0,

    nat =  36
    ntyp = 2

    ecutwfc = 45 , ecutrho = 360,

    occupations='smearing', smearing='mv', degauss=0.02

/

  &electrons

     diagonalization='david',

     mixing_mode  =  'local-TF',

     mixing_beta = 0.7

   /

   &ions

     ion_dynamics = 'bfgs'

  /

   &cell

     cell_dynamics = 'bfgs',

   /

 ATOMIC_SPECIES

 Mo  95.5     Mo.pw91-n-van.UPF

 S   32.065   S.pw91-van_ak.UPF

K_POINTS {automatic}
  3  3  1 0 0 0
  
CELL_PARAMETERS (angstrom)
   6.475726753647230E+00   0.000000000000000E+00   0.000000000000000E+00
   3.236970247848140E+00   5.599185637560530E+00   0.000000000000000E+00
   2.959275346881210E-01  -3.006093105694250E-01   2.207090249646040E+01
  
ATOMIC_POSITIONS (angstrom)
   Mo   7.935397691255140E+00   5.080483232715660E+00   8.057016346411279E+00
   Mo   6.428397298056340E+00   2.273652378159570E+00   8.086174097900930E+00
   Mo   3.148755422048930E+00   2.233351970503560E+00   8.150338764004211E+00
   Mo   4.795877250252510E+00   5.079728344858870E+00   8.026148081319519E+00
   Mo   7.383309647963970E+00   5.708770717334810E+00   1.493925404244970E+01
   Mo   5.794338327932390E+00   3.025378836827060E+00   1.496629300038140E+01
   Mo   2.510975510785310E+00   2.947682693183890E+00   1.498211879532460E+01
   Mo   4.148728250409860E+00   5.772682887434590E+00   1.502744911512530E+01
   Mo   1.299741870486160E+00  -2.157355351800700E-01   2.106068322341960E+01
   Mo   2.988429665230880E+00   2.502414056725550E+00   2.109443718207340E+01
   Mo   6.260344590999130E+00   2.612874691122260E+00   2.110028078347520E+01
   Mo   4.644767318258710E+00  -3.026381522739270E-01   2.103732619439260E+01
    S   9.143328071344779E+00   4.664267630608930E+00   5.782187080524460E-01
    S   7.530802146118580E+00   1.891710734513450E+00   6.066043973370310E-01
    S   4.354874784363830E+00   1.851134531604650E+00   5.508949425418270E-01
    S   5.894887343402520E+00   4.785080417139420E+00   5.622667925748930E-01
    S   3.109282952044450E+00   4.092604723081040E+00   6.569886588196010E+00
    S   1.567214630479790E+00   1.379111853835510E+00   6.487352833140730E+00
    S   4.777740584798480E+00   1.372678998333350E+00   6.523612873257680E+00
    S   6.382685407098950E+00   4.105888202901190E+00   6.454757203212690E+00
    S   3.133717252707920E+00   4.192301719885950E+00   9.621089460554940E+00
    S   1.513460158627390E+00   1.275206633310920E+00   9.697628280090040E+00
    S   4.807386217423560E+00   1.310854064158750E+00   9.663528247521960E+00
    S   6.360739438191710E+00   4.136879692090930E+00   9.673222220036520E+00
    S   4.162708791583680E+00   2.033277093628390E+00   1.342696929885960E+01
    S   5.695789266947670E+00   4.859502907881920E+00   1.334753079587790E+01
    S   2.572379751398150E+00   4.813493655654030E+00   1.340970763350520E+01
    S   8.933902888931270E-01   2.006998921715470E+00   1.339976725315470E+01
    S   4.179517453668410E+00   2.011136122840150E+00   1.646590502022890E+01
    S   5.787072452471220E+00   4.848738694240110E+00   1.656530791876440E+01
    S   8.998275056283029E+00   4.810513476856410E+00   1.656908351854530E+01
    S   7.350949433965610E+00   2.043456580013870E+00   1.658356224987390E+01
    S   9.479608709190600E+00   4.356263312259640E+00   1.945875495915510E+01
    S   7.821875076653570E+00   1.667191364641040E+00   1.947947334779700E+01
    S   4.655560721700500E+00   1.636830331765100E+00   1.956768739291720E+01
    S   6.163656632885380E+00   4.454821641601850E+00   1.950413616442490E+01
