 &control

     calculation = 'scf',

     restart_mode='from_scratch',

     tprnfor=.true.

     prefix='MoS2',

     outdir='./tmp',

     max_seconds = 84500

     disk_io = 'none'

     pseudo_dir = '~/pseudo/',

 /

 &system

    ibrav = 0,

    nat =  36
    ntyp = 2

    ecutwfc = 45 , ecutrho = 360,

    occupations='smearing', smearing='mv', degauss=0.02

/

  &electrons

     diagonalization='david',

     mixing_mode  =  'local-TF',

     mixing_beta = 0.7

   /

   &ions

     ion_dynamics = 'bfgs'

  /

   &cell

     cell_dynamics = 'bfgs',

   /

 ATOMIC_SPECIES

 Mo  95.5     Mo.pw91-n-van.UPF

 S   32.065   S.pw91-van_ak.UPF

K_POINTS {automatic}
  3  3  1 0 0 0
  
CELL_PARAMETERS (angstrom)
   6.700352400000000E+00   0.000000000000000E+00   0.000000000000000E+00
  -3.350176200000000E+00   5.802675900000001E+00   0.000000000000000E+00
   0.000000000000000E+00   0.000000000000000E+00   2.238411000000000E+01
  
ATOMIC_POSITIONS (angstrom)
   Mo   1.776951231431670E+00   1.126063544242300E+00   7.390351570657340E+00
   Mo   1.847709850500730E-01   3.836130793821100E+00   7.386974954715270E+00
   Mo   5.089605624742910E+00   8.646966240720180E-01   7.297086340445300E+00
   Mo   3.476623895658530E+00   3.803468893339700E+00   7.315697830772660E+00
   Mo  -1.447173261542970E-01   1.990627548965110E+00   1.479175471063090E+01
   Mo  -1.674175058868510E+00   4.822662435519460E+00   1.471817447473630E+01
   Mo   3.220172739026800E+00   1.848303956375990E+00   1.504312283473370E+01
   Mo   1.824518521044160E+00   4.948419792810160E+00   1.484751573308960E+01
   Mo  -1.174998939941270E-01   1.871030125891950E-02   2.221835858626020E+01
   Mo  -1.722070711036620E+00   2.841439179843300E+00   2.219417302291850E+01
   Mo   3.290362419121300E+00   1.525352998535750E-01   2.226442181381210E+01
   Mo   1.625749016045640E+00   2.988793526461200E+00   2.220615251753790E+01
    S  -7.078104716577840E-02   1.898843395637720E+00   1.454881646095220E+00
    S  -1.742257577490930E+00   4.752316128815260E+00   1.469569779839450E+00
    S   3.343149287208800E+00   1.935843541921040E+00   1.438691586304440E+00
    S   1.683426701007790E+00   4.700419321100750E+00   1.491366861901040E+00
    S   4.726356071200620E-02  -8.598231649444879E-03   6.007029616590360E+00
    S  -1.674860440411200E+00   2.900865329691900E+00   5.612885445678290E+00
    S   3.303036203044930E+00   1.394099803337820E-01   5.948319901089720E+00
    S   1.754160390897360E+00   2.757471429244440E+00   5.698648174144190E+00
    S   7.774374713923210E-02  -1.575457199886070E-01   9.004345626249719E+00
    S  -1.636275648943190E+00   2.760573757329130E+00   8.963252890089221E+00
    S   3.238433547774780E+00  -1.114601047247890E-02   8.934426889615059E+00
    S   1.660681590483720E+00   2.802013885238700E+00   9.272918906292951E+00
    S   1.778075867164320E+00   1.100351817386800E+00   1.316635414825400E+01
    S  -6.107205374229060E-02   3.752096150276830E+00   1.312347638820380E+01
    S   5.031470166756710E+00   1.080693340711950E+00   1.343874870971290E+01
    S   3.399030709672760E+00   4.012493577387760E+00   1.314438297247240E+01
    S   1.493798225727340E+00   9.274758262334590E-01   1.663586801550060E+01
    S   4.436180570381830E-02   3.752375266694000E+00   1.640457383800580E+01
    S   5.016309015147750E+00   8.913122216590790E-01   1.637642400641950E+01
    S   3.517239205419540E+00   3.837557558941470E+00   1.666681485332100E+01
    S   6.573442773656650E-02   2.067068583247190E+00   2.086991432444550E+01
    S  -1.683334436156760E+00   4.837424576546610E+00   2.093545355081070E+01
    S   3.402526272875640E+00   2.037729215462650E+00   2.057270145409750E+01
    S   1.749603331479700E+00   4.772143604445930E+00   2.056120442159630E+01
