 &control

     calculation = 'scf',

     restart_mode='from_scratch',

     tprnfor=.true.

     prefix='MoS2',

     outdir='./tmp',

     max_seconds = 84500

     disk_io = 'none'

     pseudo_dir = '~/pseudo/',

 /

 &system

    ibrav = 0,

    nat =  36
    ntyp = 2

    ecutwfc = 45 , ecutrho = 360,

    occupations='smearing', smearing='mv', degauss=0.02

/

  &electrons

     diagonalization='david',

     mixing_mode  =  'local-TF',

     mixing_beta = 0.7

   /

   &ions

     ion_dynamics = 'bfgs'

  /

   &cell

     cell_dynamics = 'bfgs',

   /

 ATOMIC_SPECIES

 Mo  95.5     Mo.pw91-n-van.UPF

 S   32.065   S.pw91-van_ak.UPF

K_POINTS {automatic}
  3  6  1 0 0 0
  
CELL_PARAMETERS (angstrom)
   6.381288000000000E+00   0.000000000000000E+00   0.000000000000000E+00
  -1.595322000000000E+00   2.763179000000000E+00   0.000000000000000E+00
   0.000000000000000E+00   0.000000000000000E+00   4.263640000000000E+01
  
ATOMIC_POSITIONS (angstrom)
   Mo   1.711231214544950E+00   7.803036826121580E-01   7.019126309916260E+00
   Mo   1.600425965911430E+00   9.139669337205580E-01   2.821969651307130E+01
   Mo   4.641679597005070E+00   8.693888680744050E-01   7.229801505815880E+00
   Mo   4.767440999704260E+00   9.183031206926791E-01   2.822038460414660E+01
   Mo   1.393158593136500E-01   1.848982168021830E+00   1.435071673223070E+01
   Mo   1.051220799080980E-01   1.726382117667940E+00   3.540087202047750E+01
   Mo   3.312508184354410E+00   1.925200008416090E+00   1.407230692566550E+01
   Mo   3.324525365902380E+00   1.988915230458040E+00   3.550263898211590E+01
   Mo   2.835853595943610E-02  -8.153847461998739E-02   2.113303742022330E+01
   Mo  -1.528078777056990E-01   1.036572642800900E-01   4.255480253762090E+01
   Mo   3.234770205877350E+00   1.941147814265350E-01   2.133274188516490E+01
   Mo   3.228774207606400E+00   7.518225286308640E-02   4.281301228997540E+01
    S  -1.752805683892340E-01   1.847609608621290E+00   1.464372781005550E+00
    S   1.133139211313850E-01   1.815414381481000E+00   2.271611141535300E+01
    S   3.178180072582690E+00   1.789550490746630E+00   1.367970315203210E+00
    S   3.155959777226280E+00   2.038762874175300E+00   2.289008368418750E+01
    S   1.751306241227590E-01  -1.684731240869840E-02   5.440973242614500E+00
    S  -1.322555762708530E-01  -1.015576527661240E-01   2.674385198571160E+01
    S   3.147049134633660E+00  -7.344159189816780E-03   5.731133409455060E+00
    S   3.163797272052450E+00   1.646611124394580E-01   2.696458018328820E+01
    S  -6.951187440433020E-02   3.972262907665790E-03   8.479104916108330E+00
    S   1.455369613926150E-01  -6.774879066738240E-02   3.010408020409610E+01
    S   3.301065748412440E+00  -1.370888187543620E-01   8.571653964860490E+00
    S   3.027973239000730E+00  -6.314257817402330E-02   3.008252487410870E+01
    S   1.627301437949720E+00   8.754238238290020E-01   1.283422065989430E+01
    S   1.775626221371790E+00   8.356841609228630E-01   3.394612257037430E+01
    S   4.908844507441550E+00   9.612588082285650E-01   1.279473523438780E+01
    S   4.769581915044560E+00   8.438978311894640E-01   3.414412739482790E+01
    S   1.628803839255180E+00   8.932876926973330E-01   1.557744169807340E+01
    S   1.679373559515710E+00   9.744721387457220E-01   3.726429739745260E+01
    S   4.648540629709790E+00   1.052196456970010E+00   1.571007021550680E+01
    S   4.771899964017790E+00   9.136045645546360E-01   3.729021933293770E+01
    S   1.507906209929460E-01   1.838518717620950E+00   1.987955560595530E+01
    S  -1.977319795221530E-01   1.813649114588690E+00   4.107601748124810E+01
    S   3.376780762088390E+00   1.872924067621100E+00   1.981458106599670E+01
    S   3.194835672254730E+00   1.652816902000460E+00   4.113081570486810E+01
