 &control

     calculation = 'scf',

     restart_mode='from_scratch',

     tprnfor=.true.

     prefix='MoS2',

     outdir='./tmp',

     max_seconds = 84500

     disk_io = 'none'

     pseudo_dir = '~/pseudo/',

 /

 &system

    ibrav = 0,

    nat =  24
    ntyp = 2

    ecutwfc = 45 , ecutrho = 360,

    occupations='smearing', smearing='mv', degauss=0.02

/

  &electrons

     diagonalization='david',

     mixing_mode  =  'local-TF',

     mixing_beta = 0.7

   /

   &ions

     ion_dynamics = 'bfgs'

  /

   &cell

     cell_dynamics = 'bfgs',

   /

 ATOMIC_SPECIES

 Mo  95.5     Mo.pw91-n-van.UPF

 S   32.065   S.pw91-van_ak.UPF

K_POINTS {automatic}
  3  6  1 0 0 0
  
CELL_PARAMETERS (angstrom)
   6.401890723465429E+00   0.000000000000000E+00   0.000000000000000E+00
  -1.592365536098974E+00   2.761915141878853E+00   0.000000000000000E+00
  -3.513367550361553E-01  -1.065333936853692E+00   2.323854969211013E+01
  
ATOMIC_POSITIONS (angstrom)
   Mo   1.039424014710220E-01  -3.793961237847490E-01   8.730796257238319E+00
   Mo  -3.291214307680980E-01  -1.015915431965060E+00   2.010527136313140E+01
   Mo   3.307728358671710E+00  -3.144946248010440E-01   8.564778081017270E+00
   Mo   2.786266004503640E+00  -1.032323366562520E+00   2.078229613841260E+01
   Mo  -5.684771658185420E-02  -8.496665938319360E-02   2.986282773957640E+00
   Mo  -3.522565871924100E-01  -6.459023805808890E-01   1.449700141632430E+01
   Mo   3.113102391539060E+00  -7.913214086879640E-02   2.851501492776460E+00
   Mo   2.836860964860230E+00  -6.267767363303680E-01   1.444231045736860E+01
    S   1.774278312228910E+00   1.177974614009690E-01   9.798195247902109E+00
    S   1.162607002842040E+00  -1.275255773765580E-01   2.174330148250160E+01
    S   4.952755229819170E+00   2.371877101964970E-01   9.839956114123540E+00
    S   4.386282939878910E+00  -1.215870468183610E-01   2.151036853685580E+01
    S  -2.563980476896250E-01   1.701277673465930E+00   1.764642809044600E+00
    S  -2.918699585862940E-01   1.156837895663920E+00   1.329600092649220E+01
    S   2.930060602885800E+00   1.723066649634390E+00   1.729794298833020E+00
    S   2.807641718155380E+00   1.209788081329390E+00   1.328306290813880E+01
    S   8.358984656049970E-02   1.825595369521090E+00   4.110002977795060E+00
    S  -3.678845813235280E-01   1.171303620866090E+00   1.566258578290990E+01
    S   3.387106028719360E+00   1.658424998456270E+00   4.063171339550220E+00
    S   2.847183369039840E+00   1.266475831011720E+00   1.564969900582930E+01
    S   1.487974213998380E+00   8.128841828658500E-01   7.469867857877820E+00
    S   1.326477528859750E+00   1.357731849727590E-02   1.937380594681040E+01
    S   4.770751389086820E+00   7.773391904218661E-01   7.506203830500720E+00
    S   4.642471944732820E+00  -1.465028521140900E-02   1.909566004814410E+01
