 &control

     calculation = 'scf',

     restart_mode='from_scratch',

     tprnfor=.true.

     prefix='MoS2',

     outdir='./tmp',

     max_seconds = 84500

     disk_io = 'none'

     pseudo_dir = '~/pseudo/',

 /

 &system

    ibrav = 0,

    nat =  24
    ntyp = 2

    ecutwfc = 45 , ecutrho = 360,

    occupations='smearing', smearing='mv', degauss=0.02

/

  &electrons

     diagonalization='david',

     mixing_mode  =  'local-TF',

     mixing_beta = 0.7

   /

   &ions

     ion_dynamics = 'bfgs'

  /

   &cell

     cell_dynamics = 'bfgs',

   /

 ATOMIC_SPECIES

 Mo  95.5     Mo.pw91-n-van.UPF

 S   32.065   S.pw91-van_ak.UPF

K_POINTS {automatic}
  3  3  2 0 0 0
  
CELL_PARAMETERS (angstrom)
   6.551922865628193E+00   0.000000000000000E+00   0.000000000000000E+00
  -3.314331882980628E+00   5.847975248034864E+00   0.000000000000000E+00
  -1.115714552914807E+00  -1.268503425108698E+00   1.105128166887611E+01
  
ATOMIC_POSITIONS (angstrom)
   Mo   3.158390299939770E-01   1.462712217440600E+00   3.576659839606470E+00
   Mo  -1.353309404928240E+00   4.425094745701220E+00   2.500947789053670E+00
   Mo   3.670763785399150E+00   1.430241223256740E+00   2.461142893086470E+00
   Mo   2.012996138382290E+00   4.353586260322790E+00   3.091021467452060E+00
   Mo  -2.493714050231770E-01  -4.493611663572940E-01   7.691988767565080E+00
   Mo  -1.599489434330620E+00   2.706221647576750E+00   7.805198947958090E+00
   Mo   3.177881934535500E+00  -8.235250781452630E-02   8.461170665394690E+00
   Mo   1.643203957924750E+00   2.734479119341260E+00   8.637431157197680E+00
    S   6.045083009316390E-01  -5.861103790544731E-01   3.969045006393150E+00
    S  -1.043848249257690E-01   3.669870622813170E+00   3.769506566448710E+00
    S   4.888388924000660E+00   5.491358707452910E-01   3.798750411357560E+00
    S   2.252844075490420E+00   2.276234672578290E+00   4.055840430965880E+00
    S  -1.557316055295400E+00   8.344385423381460E-01   9.205816650192761E+00
    S  -3.279209796618910E+00   3.813115689728310E+00   9.298100447825179E+00
    S   1.870364546418060E+00   9.482337688126470E-01   9.578159592717570E+00
    S  -2.048026808410940E-01   3.603378843541310E+00   9.038027258768929E+00
    S   1.782804067861390E+00   1.109029524647690E+00   1.826222946916580E+00
    S   6.587010958486700E-01   5.429355965788000E+00   1.651704860789690E+00
    S   5.642549201977950E+00   2.265750479391090E+00   2.066032715480420E+00
    S   3.491543144860950E+00   3.552625194224550E+00   1.782926595815770E+00
    S  -3.360124482412780E-02   1.608723579255070E+00   6.953595408283460E+00
    S  -1.756856658190390E+00   4.759057633579690E+00   7.060073861136180E+00
    S   3.182429199556010E+00   1.686004726834940E+00   7.188987103716720E+00
    S   1.275032375553630E+00   4.591461352667780E+00   7.126593790581090E+00
