 &control

     calculation = 'scf',

     restart_mode='from_scratch',

     tprnfor=.true.

     prefix='MoS2',

     outdir='./tmp',

     max_seconds = 84500

     disk_io = 'none'

     pseudo_dir = '~/pseudo/',

 /

 &system

    ibrav = 0,

    nat =  24
    ntyp = 2

    ecutwfc = 45 , ecutrho = 360,

    occupations='smearing', smearing='mv', degauss=0.02

/

  &electrons

     diagonalization='david',

     mixing_mode  =  'local-TF',

     mixing_beta = 0.7

   /

   &ions

     ion_dynamics = 'bfgs'

  /

   &cell

     cell_dynamics = 'bfgs',

   /

 ATOMIC_SPECIES

 Mo  95.5     Mo.pw91-n-van.UPF

 S   32.065   S.pw91-van_ak.UPF

K_POINTS {automatic}
  3  3  2 0 0 0
  
CELL_PARAMETERS (angstrom)
   6.339527147724999E+00   0.000000000000000E+00   0.000000000000000E+00
  -3.179054749264997E+00   5.482240814628787E+00   0.000000000000000E+00
  -2.564290195898829E-02  -7.178495053957749E-02   1.167463055990663E+01
  
ATOMIC_POSITIONS (angstrom)
   Mo   1.316592145308990E-02  -6.230830233132140E-02   8.704031030010180E+00
   Mo  -1.592758201267840E+00   2.679972347651410E+00   8.752980769049691E+00
   Mo   3.179552696412660E+00  -5.313698151479140E-02   8.756674339861940E+00
   Mo   1.567461309298930E+00   2.683883288243700E+00   8.831063379429150E+00
   Mo  -2.382520374384070E-02  -5.410197930191770E-03   2.956750705108400E+00
   Mo  -1.614243307545980E+00   2.725032552818130E+00   2.889759949545620E+00
   Mo   3.138426380456940E+00  -1.385153245521910E-02   2.924730443378590E+00
   Mo   1.557809377738290E+00   2.738672264482610E+00   2.882663064991690E+00
    S   1.593030622533500E+00   7.647981428073830E-01   9.940995557580029E+00
    S   3.538961893008300E-04   3.578902711474850E+00   9.967238185071480E+00
    S   4.779025725353960E+00   8.287974201303380E-01   9.924648350314900E+00
    S   3.123220169953520E+00   3.544270780340490E+00   9.944419717932760E+00
    S  -3.423519039593370E-02   1.792557258062530E+00   1.728539822958280E+00
    S  -1.630175882831390E+00   4.538942830937410E+00   1.738535210715140E+00
    S   3.096033250569090E+00   1.822689890850660E+00   1.716554956527830E+00
    S   1.510251571616960E+00   4.556069656729240E+00   1.736130054858980E+00
    S   1.335613561394440E-02   1.853709956771080E+00   4.095764458531530E+00
    S  -1.637844094698000E+00   4.542901124713090E+00   4.106568445334760E+00
    S   3.193094015940930E+00   1.794007145184140E+00   4.083259126927710E+00
    S   1.572859058322130E+00   4.587505537190560E+00   4.103640595176760E+00
    S   1.554557449544110E+00   9.304740275685560E-01   7.576891612354140E+00
    S  -2.516564882904730E-02   3.641082304548110E+00   7.599540084217090E+00
    S   4.756692564709230E+00   8.754715305750380E-01   7.556929379712390E+00
    S   3.199150760982520E+00   3.600443371097440E+00   7.577126037538570E+00
