 &control

     calculation = 'scf',

     restart_mode='from_scratch',

     tprnfor=.true.

     prefix='MoS2',

     outdir='./tmp',

     max_seconds = 84500

     disk_io = 'none'

     pseudo_dir = '~/pseudo/',

 /

 &system

    ibrav = 0,

    nat =  24
    ntyp = 2

    ecutwfc = 45 , ecutrho = 360,

    occupations='smearing', smearing='mv', degauss=0.02

/

  &electrons

     diagonalization='david',

     mixing_mode  =  'local-TF',

     mixing_beta = 0.7

   /

   &ions

     ion_dynamics = 'bfgs'

  /

   &cell

     cell_dynamics = 'bfgs',

   /

 ATOMIC_SPECIES

 Mo  95.5     Mo.pw91-n-van.UPF

 S   32.065   S.pw91-van_ak.UPF

K_POINTS {automatic}
  3  5  1 0 0 0
  
CELL_PARAMETERS (angstrom)
   6.796224593602516E+00   0.000000000000000E+00   0.000000000000000E+00
  -1.717085456452142E+00   2.940614633340100E+00   0.000000000000000E+00
  -1.519914253363056E+00   1.904423530529015E+00   2.339764242528263E+01
  
ATOMIC_POSITIONS (angstrom)
   Mo   1.557391854141600E-02   1.758382395635180E+00   8.773552195495320E+00
   Mo  -1.549220956464060E+00   2.558962488774280E+00   2.055770819979080E+01
   Mo   3.453855959993110E+00   1.692265213977810E+00   8.318270435462230E+00
   Mo   1.861029838415430E+00   2.569212690107950E+00   2.080752967614590E+01
   Mo  -2.801260894214080E-01  -6.606963016145410E-01   3.098559996832390E+00
   Mo  -1.307669957947880E+00   1.946436635861070E-01   1.481689093153500E+01
   Mo   3.088295103587220E+00  -6.449442360936370E-01   2.880894708403670E+00
   Mo   2.070199545503310E+00   2.200802557499800E-01   1.435118886482280E+01
    S   1.928782013761560E+00   2.592798674271510E+00   9.541545734269331E+00
    S   7.266655929381979E-02   3.516233229510320E+00   2.172133320348960E+01
    S   5.272232218838710E+00   2.731364308413280E+00   9.671455212905149E+00
    S   3.432501580581700E+00   3.550752880117110E+00   2.173299820834970E+01
    S  -2.662727233389580E-01   1.207649798328390E+00   1.959972158424090E+00
    S  -1.368697851581810E+00   2.241544827343770E+00   1.358567139319360E+01
    S   3.132185630763660E+00   1.229477541680000E+00   1.924149966865770E+00
    S   2.085452965102200E+00   2.249791259505530E+00   1.350154525160600E+01
    S  -2.741639639969430E-01   3.176824582214240E+00   3.991627257578390E+00
    S  -1.340977395913350E+00   4.207977778128120E+00   1.557159539517550E+01
    S   3.123254513630750E+00   3.171270887475710E+00   4.043419012311950E+00
    S   2.022493415039370E+00   4.167532163582900E+00   1.567944923980780E+01
    S   1.978446216752010E+00   6.551237923627300E-01   7.461674239579980E+00
    S   1.220022378906030E-01   1.579045672921970E+00   1.960467194315820E+01
    S   5.350255342296090E+00   7.117496929688450E-01   7.493966807314290E+00
    S   3.525347934273260E+00   1.630744126113330E+00   1.966801376351430E+01
