 &control

     calculation = 'scf',

     restart_mode='from_scratch',

     tprnfor=.true.

     prefix='MoS2',

     outdir='./tmp',

     max_seconds = 84500

     disk_io = 'none'

     pseudo_dir = '~/pseudo/',

 /

 &system

    ibrav = 0,

    nat =  24
    ntyp = 2

    ecutwfc = 45 , ecutrho = 360,

    occupations='smearing', smearing='mv', degauss=0.02

/

  &electrons

     diagonalization='david',

     mixing_mode  =  'local-TF',

     mixing_beta = 0.7

   /

   &ions

     ion_dynamics = 'bfgs'

  /

   &cell

     cell_dynamics = 'bfgs',

   /

 ATOMIC_SPECIES

 Mo  95.5     Mo.pw91-n-van.UPF

 S   32.065   S.pw91-van_ak.UPF

K_POINTS {automatic}
  3  6  1 0 0 0
  
CELL_PARAMETERS (angstrom)
   6.499889361060180E+00   0.000000000000000E+00   0.000000000000000E+00
  -1.598355447858635E+00   2.831007884150398E+00   0.000000000000000E+00
  -1.775196725618819E+00  -4.515333735054469E+00   2.271541302995303E+01
  
ATOMIC_POSITIONS (angstrom)
   Mo  -8.239032152338729E-02  -1.388185565305960E+00   8.604266315482279E+00
   Mo  -1.709150326957690E+00  -4.073731464188400E+00   1.951663693198360E+01
   Mo   3.124105158546770E+00  -1.341896939827690E+00   8.158033607173691E+00
   Mo   1.332510871455550E+00  -4.343198283011470E+00   2.074077590708660E+01
   Mo  -2.616077434253730E-01  -3.757110820395220E-01   3.051688860489300E+00
   Mo  -1.440216107901440E+00  -2.733801898265730E+00   1.417775670658160E+01
   Mo   2.920450517518510E+00  -3.989403290965620E-01   2.718372519217210E+00
   Mo   1.829024384631540E+00  -2.748272449333750E+00   1.400748160108600E+01
    S   1.613214967507070E+00  -2.113942854394590E+00   9.481324220542010E+00
    S  -3.703260619278840E-01  -3.471756958977210E+00   2.156030247645410E+01
    S   4.629834783914530E+00  -1.662292922057750E+00   9.487162513183030E+00
    S   3.057796703273250E+00  -3.352263229634770E+00   2.082939436743810E+01
    S  -7.248375985554150E-01   1.364854500106460E+00   1.800201177070150E+00
    S  -1.340513738827980E+00  -8.147318803049530E-01   1.294017606214700E+01
    S   2.524094188254370E+00   1.335761345056020E+00   1.626150673246890E+00
    S   1.963158348098830E+00  -8.511798217479090E-01   1.288452822475590E+01
    S   1.896554322715710E-01   1.365077697181360E+00   4.078545090628350E+00
    S  -1.515570675110910E+00  -8.501608078035390E-01   1.530171085648120E+01
    S   3.498794680479690E+00   1.153813659950590E+00   3.964132532599660E+00
    S   1.737672150708460E+00  -9.228507982786460E-01   1.523820712500080E+01
    S   1.392777786786750E+00  -3.031170906079660E-01   7.311488857988040E+00
    S   3.374182804664880E-01  -2.999511413578970E+00   1.931976786363520E+01
    S   4.410360803796220E+00   2.778454970370960E-02   7.288580976707170E+00
    S   3.979698224127980E+00  -2.695284640142030E+00   1.838491056317030E+01
