 &control

     calculation = 'scf',

     restart_mode='from_scratch',

     tprnfor=.true.

     prefix='MoS2',

     outdir='./tmp',

     max_seconds = 84500

     disk_io = 'none'

     pseudo_dir = '~/pseudo/',

 /

 &system

    ibrav = 0,

    nat =  24
    ntyp = 2

    ecutwfc = 45 , ecutrho = 360,

    occupations='smearing', smearing='mv', degauss=0.02

/

  &electrons

     diagonalization='david',

     mixing_mode  =  'local-TF',

     mixing_beta = 0.7

   /

   &ions

     ion_dynamics = 'bfgs'

  /

   &cell

     cell_dynamics = 'bfgs',

   /

 ATOMIC_SPECIES

 Mo  95.5     Mo.pw91-n-van.UPF

 S   32.065   S.pw91-van_ak.UPF

K_POINTS {automatic}
  3  3  1 0 0 0
  
CELL_PARAMETERS (angstrom)
   6.380632000000000E+00   0.000000000000000E+00   0.000000000000000E+00
  -3.190316000000000E+00   5.525788000000000E+00   0.000000000000000E+00
   0.000000000000000E+00   0.000000000000000E+00   1.487900400000000E+01
  
ATOMIC_POSITIONS (angstrom)
   Mo  -1.495628600355750E-01   1.792743699658250E+00   3.596413613572000E+00
   Mo  -1.647894121960290E+00   4.596870377339430E+00   3.912509412330740E+00
   Mo   3.169482827055430E+00   1.752552566582680E+00   3.897452081329250E+00
   Mo   1.520674782105980E+00   4.425370327454510E+00   3.672329738786700E+00
   Mo   1.598452777982390E+00   9.190448720480130E-01   1.135921667887890E+01
   Mo  -7.947465641395600E-02   3.865259923683070E+00   1.113138231181700E+01
   Mo   4.880383712519760E+00   9.436105750366059E-01   1.133383699233590E+01
   Mo   3.168059623855500E+00   3.572593010672300E+00   1.132394890599730E+01
    S   1.610769625295680E+00   8.995854878082120E-01   5.482875869743500E+00
    S   9.040228256914520E-02   3.785022141284380E+00   5.431582570759380E+00
    S   4.871915343527590E+00   8.968185797805360E-01   5.463367515075710E+00
    S   3.303444736049400E+00   3.586679511561530E+00   5.417896917051230E+00
    S   1.158265568447220E-02   1.826142288196570E+00   1.292317642130290E+01
    S  -1.632881573717630E+00   4.800371852839450E+00   1.270574744994210E+01
    S   3.351981213552200E+00   1.724540009485520E+00   1.271500646398450E+01
    S   1.584891483733080E+00   4.766295320735760E+00   1.284170320398760E+01
    S   1.670609369154570E+00   8.688664035825709E-01   1.977121876565700E+00
    S   1.892624481939500E-01   3.664552403623070E+00   2.216572656310830E+00
    S   4.706812114493560E+00   1.094210807279690E+00   2.216490593453040E+00
    S   3.249619302799710E+00   3.600159342126250E+00   1.983175385100580E+00
    S   8.682102986886890E-02   1.742948212753710E+00   9.744915593536239E+00
    S  -1.659297796227120E+00   4.460282588729600E+00   9.716818615248989E+00
    S   3.151950209500620E+00   1.746045845885770E+00   9.423095842881100E+00
    S   1.562221633068040E+00   4.566607092355160E+00   9.400836337959699E+00
