 &control

     calculation = 'scf',

     restart_mode='from_scratch',

     tprnfor=.true.

     prefix='MoS2',

     outdir='./tmp',

     max_seconds = 84500

     disk_io = 'none'

     nstep= 25

     pseudo_dir = '~/pseudo/',

 /

 &system

    ibrav = 0,

    nat =  36
    ntyp = 2

    ecutwfc = 45 , ecutrho = 360,

    occupations='smearing', smearing='mv', degauss=0.02

/

  &electrons

     diagonalization='david',

     mixing_mode  =  'local-TF',

     mixing_beta = 0.7

   /

   &ions

     ion_dynamics = 'bfgs'

  /

   &cell

     cell_dynamics = 'bfgs',

   /

 ATOMIC_SPECIES

 Mo  95.5     Mo.pw91-n-van.UPF

 S   32.065   S.pw91-van_ak.UPF

K_POINTS {automatic}
  3  2  1 0 0 0
  
CELL_PARAMETERS (angstrom)
   6.420495534641500E+00   0.000000000000000E+00   0.000000000000000E+00
  -4.078003947755342E-02   1.114326269954070E+01   0.000000000000000E+00
   6.887648652943040E-01   1.685816441823430E+00   2.259075990923790E+01
  
ATOMIC_POSITIONS (angstrom)
   Mo   5.407076938376570E-01   9.607951804859560E+00   1.641582839150020E+01
   Mo   5.385567622756060E+00   1.240775158463010E+00   1.642827911908310E+01
   Mo   3.751683728533030E+00   9.609097906607500E+00   1.642149984726820E+01
   Mo   2.177360227857010E+00   1.241830972974690E+00   1.642931635171100E+01
   Mo   3.770814843052280E+00   4.026205610350410E+00   1.644256945815580E+01
   Mo   6.981179523662410E+00   4.028060665565610E+00   1.644503053528330E+01
   Mo   2.157924581975720E+00   6.818231515954860E+00   1.643525852136370E+01
   Mo   5.364562642984340E+00   6.818595212959970E+00   1.643429295441900E+01
   Mo   4.391161301849250E+00   1.054550608499120E+01   2.289381975725780E+01
   Mo   1.232488122679400E-01   8.552119309037080E+00   3.179976340832460E-02
   Mo   2.083733837530210E+00   8.886836031758190E+00   2.596400673131070E+00
   Mo   4.944677343144360E+00   8.911325206490970E+00   2.727807813724020E+00
    S   5.357967721916810E+00   1.052310520054500E+01   1.799157765052190E+01
    S   6.966840743154760E+00   7.759360839594320E+00   1.797247298386610E+01
    S   2.136745389870470E+00   1.052365253702820E+01   1.799232868768730E+01
    S   3.757142432056650E+00   7.758014918877270E+00   1.801692268364790E+01
    S   3.531450589913960E+00   1.063510246778690E+01   1.945088924164250E+00
    S   3.432875577343850E-01   9.920793399158040E+00   3.879360147795780E+00
    S   5.357545733032350E+00   1.053885503343440E+01   1.483661206563560E+01
    S   6.973283513143940E+00   7.745607028386310E+00   1.484812785506660E+01
    S   2.147376937436870E+00   1.053907009513670E+01   1.483833860127050E+01
    S   3.762494727099320E+00   7.749791872804120E+00   1.485289382391650E+01
    S   1.974064570811070E+00   7.162187006380260E+00   9.975749374111760E-01
    S   5.749354157173350E+00   1.176953267708060E+01   2.151813229394940E+01
    S   3.777302439838960E+00   2.162855959066270E+00   1.800417746007540E+01
    S   5.645592323281420E-01   2.162202595691950E+00   1.800492063502620E+01
    S   3.783103714813300E+00   2.176552918890800E+00   1.485381262652820E+01
    S   5.723780117039560E-01   2.178046801870740E+00   1.485634572175470E+01
    S   2.166214914788570E+00   4.957911683512710E+00   1.486561808109780E+01
    S   5.378507531109970E+00   4.958315866851350E+00   1.486557391061150E+01
    S   5.117640666740590E+00   7.090853437716310E+00   1.363693494234340E+00
    S   2.593274262321370E+00   1.152746603498460E+01   2.162518982996690E+01
    S   2.163855106791560E+00   4.959193559713150E+00   1.802316249998670E+01
    S   5.368318017592750E+00   4.960384118574090E+00   1.802262098705080E+01
    S   6.824399973500550E+00   8.880842532496350E+00   2.101029138064920E+01
    S   3.440278199290790E+00   8.078219428638279E+00   4.290639930635020E+00
