 &control

     calculation = 'scf',

     restart_mode='from_scratch',

     tprnfor=.true.

     prefix='MoS2',

     outdir='./tmp',

     max_seconds = 84500

     disk_io = 'none'

     pseudo_dir = '~/pseudo/',

 /

 &system

    ibrav = 0,

    nat =  24
    ntyp = 2

    ecutwfc = 45 , ecutrho = 360,

    occupations='smearing', smearing='mv', degauss=0.02

/

  &electrons

     diagonalization='david',

     mixing_mode  =  'local-TF',

     mixing_beta = 0.7

   /

   &ions

     ion_dynamics = 'bfgs'

  /

   &cell

     cell_dynamics = 'bfgs',

   /

 ATOMIC_SPECIES

 Mo  95.5     Mo.pw91-n-van.UPF

 S   32.065   S.pw91-van_ak.UPF

K_POINTS {automatic}
  3  3  2 0 0 0
  
CELL_PARAMETERS (angstrom)
   6.385737020959191E+00   0.000000000000000E+00   0.000000000000000E+00
  -3.199450517971984E+00   5.511255050699809E+00   0.000000000000000E+00
  -1.060438740366618E-01  -2.821215769642599E-01   1.155631279483318E+01
  
ATOMIC_POSITIONS (angstrom)
   Mo   3.394065149011520E-02  -2.331684315936630E-01   8.446882087935220E+00
   Mo  -1.601174077401640E+00   2.515328945730430E+00   8.658325218323039E+00
   Mo   3.222168522420990E+00  -2.119630242809430E-01   8.680266691220989E+00
   Mo   1.542341204761330E+00   2.506055825138620E+00   8.967055221865960E+00
   Mo  -9.724244790270850E-02  -2.003207854773850E-02   3.048269431946380E+00
   Mo  -1.700149700035300E+00   2.697958944563790E+00   2.770289979465140E+00
   Mo   3.065441409042110E+00  -5.057595725399560E-02   2.914376961487170E+00
   Mo   1.490394441977130E+00   2.741112069478220E+00   2.739962650449930E+00
    S   1.617738447581860E+00   3.728802806912950E-01   9.837541219168671E+00
    S  -1.297032129345870E-03   3.340906448795630E+00   9.945333795014429E+00
    S   4.874899021605920E+00   5.614302581343740E-01   9.777844801834799E+00
    S   3.125424708116750E+00   3.231128984171500E+00   9.885106679981030E+00
    S  -1.598249844289630E-01   1.717886151851180E+00   1.679789455454260E+00
    S  -1.785379160278070E+00   4.487906281691690E+00   1.721232020001770E+00
    S   2.935235321068960E+00   1.790114021524730E+00   1.639510135016910E+00
    S   1.325992958045880E+00   4.537620985841140E+00   1.718918936149510E+00
    S   4.840613687100630E-02   1.911016932422920E+00   4.034925317158140E+00
    S  -1.728375985413950E+00   4.529606033940410E+00   4.091121046609630E+00
    S   3.268902068834870E+00   1.740043058434680E+00   3.989471464120680E+00
    S   1.568226365550980E+00   4.648267227316450E+00   4.079386796589720E+00
    S   1.507319204404040E+00   9.410616819459660E-01   7.531119967892800E+00
    S  -6.973828844697311E-02   3.618642628584420E+00   7.583327583055430E+00
    S   4.799040365134650E+00   7.990190964918320E-01   7.417836079113840E+00
    S   3.300726896041430E+00   3.504152718660140E+00   7.517682934781280E+00
