 &control

     calculation = 'scf',

     restart_mode='from_scratch',

     tprnfor=.true.

     prefix='MoS2',

     outdir='./tmp',

     max_seconds = 84500

     disk_io = 'none'

     pseudo_dir = '~/pseudo/',
     nstep= 30 

 /

 &system

    ibrav = 0,

    nat =  24
    ntyp = 2

    ecutwfc = 45 , ecutrho = 360,

    occupations='smearing', smearing='mv', degauss=0.02

/

  &electrons

     diagonalization='david',

     mixing_mode  =  'local-TF',

     mixing_beta = 0.7

   /

   &ions

     ion_dynamics = 'bfgs'

  /

   &cell

     cell_dynamics = 'bfgs',

   /

 ATOMIC_SPECIES

 Mo  95.5     Mo.pw91-n-van.UPF

 S   32.065   S.pw91-van_ak.UPF

K_POINTS {gamma}
  
CELL_PARAMETERS (angstrom)
  17.457603760   0.032452337   0.091141930
   0.038973344  20.580730502  -0.028955344
   0.162732556   0.496781706  21.581288501

ATOMIC_POSITIONS (angstrom)
Mo       7.853641700   7.589382408  11.568709780
Mo       8.272848420  13.706994226   9.383097469
Mo       7.399829384  11.817264672   7.375436759
Mo       7.778678947  12.827187086  12.028333325
Mo       6.999244420   9.675140241   9.686177088
Mo       9.572670146  10.111989263  14.035337899
Mo      10.157378721  12.308011127   7.817152795
Mo      10.505925636  10.953892585  10.595605754
S       10.513534192   9.997598047  15.957627766
S        9.018684771  12.114096190   5.747130500
S       10.134963623  14.580788078   8.247547679
S        6.204824108  11.351804201  11.170254220
S       11.999678531  11.179674827   8.861402767
S        8.205849636  11.970094389  14.155075157
S        6.149907254   9.815998350   7.499281463
S        9.239616999   8.829908596  10.187083324
S       11.325082878  10.099938012  12.570425480
S        7.139488477  14.872037443  11.225154368
S        8.600715526  11.468519049   9.331409560
S        5.733455734   8.087383749  10.882505089
S        8.302270282   8.178464020  13.773682926
S        9.986706132  13.145868809  11.316313262
S        8.442485904   5.548763577  11.225587406
S        6.614422155  13.960724022   7.719814603
