 &control

     calculation = 'scf',

     restart_mode='from_scratch',

     tprnfor=.true.

     prefix='MoS2',

     outdir='./tmp',

     max_seconds = 84500

     disk_io = 'none'

     pseudo_dir = '~/pseudo/',
     nstep= 30

 /

 &system

    ibrav = 0,

    nat =  27
    ntyp = 2

    ecutwfc = 45 , ecutrho = 360,

    occupations='smearing', smearing='mv', degauss=0.02

/

  &electrons

     diagonalization='david',

     mixing_mode  =  'local-TF',

     mixing_beta = 0.7

   /

   &ions

     ion_dynamics = 'bfgs'

  /

   &cell

     cell_dynamics = 'bfgs',

   /

 ATOMIC_SPECIES

 Mo  95.5     Mo.pw91-n-van.UPF

 S   32.065   S.pw91-van_ak.UPF

K_POINTS {automatic}
  3  2  2 0 0 0
  
CELL_PARAMETERS (angstrom)
   5.864485247  -0.056673595  -0.026128510
  -0.039018343   8.742846069   0.465976964
  -0.052648952   1.787900561  10.169427813

ATOMIC_POSITIONS (angstrom)
Mo       5.590188583   5.957152886   4.874642062
Mo       5.622493928   5.417134533   1.097698097
Mo       5.576378116   2.578033428   3.576608811
Mo       5.468523632   9.492683361   9.462783204
Mo       5.552200977   3.588271341   6.516171027
Mo       5.503388137   8.953007118   5.685553375
Mo       2.606318941   4.008117133  10.142791447
Mo       2.634614070   6.506907218   8.135127151
Mo       2.589934698   8.455868289   2.453995251
S        3.960264315   2.142267509   5.290674409
S        1.248720059   7.245269444   6.220110004
S        4.055854652   5.960831118   9.928527382
S        0.896528436   1.567794545   7.014807048
S        4.058072984   5.395010979   6.581445091
S        3.977338234   7.719815015   4.368016525
S        4.031878250   7.216905334   1.032966876
S        1.188533528   4.611132216   8.227446283
S        1.005231420   3.382262172   1.463466374
S        1.113911104   6.545972023   2.862779067
S        1.206688284   0.828227315   3.537306292
S        1.195755287   7.750869400   9.554252965
S        4.369586183   4.655296010   3.105177781
S        4.112854326   8.419805987   7.725152804
S        1.210567107   0.264695031   0.192592853
S        1.305349774   4.078654358   4.830424280
S        4.260366765   2.841540701   8.658143341
S        4.075225691   1.611594613   1.890830891
