 &control

     calculation = 'scf',

     restart_mode='from_scratch',

     tprnfor=.true.

     prefix='MoS2',

     outdir='./tmp',

     max_seconds = 84500

     disk_io = 'none'

     pseudo_dir = '~/pseudo/',

 /

 &system

    ibrav = 0,

    nat =  24
    ntyp = 2

    ecutwfc = 45 , ecutrho = 360,

    occupations='smearing', smearing='mv', degauss=0.02

/

  &electrons

     diagonalization='david',

     mixing_mode  =  'local-TF',

     mixing_beta = 0.7

   /

   &ions

     ion_dynamics = 'bfgs'

  /

   &cell

     cell_dynamics = 'bfgs',

   /

 ATOMIC_SPECIES

 Mo  95.5     Mo.pw91-n-van.UPF

 S   32.065   S.pw91-van_ak.UPF

K_POINTS {automatic}
  3  5  1 0 0 0
  
CELL_PARAMETERS (angstrom)
   6.793650638576830E+00   0.000000000000000E+00   0.000000000000000E+00
  -1.588727698034926E+00   2.876343294306045E+00   0.000000000000000E+00
  -5.265302146802747E-01  -2.098103244555903E+00   2.295887533850748E+01
  
ATOMIC_POSITIONS (angstrom)
   Mo   1.259617989039010E+00   1.299466291941360E+00   2.855589309400970E+00
   Mo  -6.507582037799250E-01   6.255330512552350E-01   1.406157864929510E+01
   Mo   4.545374149123370E+00   1.348561817834420E+00   3.142346656994780E+00
   Mo   2.798149842864530E+00   3.909013157480540E-01   1.509047491891680E+01
   Mo   8.900948519748160E-01   2.447063455869960E-01   8.677189609000450E+00
   Mo   8.750228134696060E-01  -9.784770981837320E-01   2.029926058249830E+01
   Mo   4.544546307715450E+00   2.925060766754470E-01   7.957534380207830E+00
   Mo   4.532652219800510E+00  -1.023468820019950E+00   1.982905063006180E+01
    S   2.470498711646780E+00   7.054781976045719E-02   3.941024700087520E+00
    S   1.073007473672750E+00  -9.172912948173780E-01   1.549479430020360E+01
    S   5.685237467695430E+00   6.607126970557070E-02   4.203703840706280E+00
    S   4.131642505735020E+00  -7.374710550137520E-01   1.603009093581150E+01
    S  -7.643783903441190E-01   8.904692340801640E-01   9.621647701072900E+00
    S  -8.950665113872081E-01  -3.127559989403110E-01   2.126380122233260E+01
    S   2.597773062472520E+00   1.117519083645680E+00   9.260355633088320E+00
    S   2.331997061682630E+00   1.770191206811380E-01   2.101929920394980E+01
    S   2.818071322465130E+00   2.173148687077250E+00   1.962633412986830E+00
    S   9.147520711916940E-01  -3.725236670059340E-01   1.309423584464020E+01
    S   6.196540358278510E+00   1.819269362505460E+00   2.028403190240790E+00
    S   4.171552273730430E+00   1.055827586773420E-01   1.363113669596440E+01
    S  -4.342722826154370E-01   1.533487532786040E+00   7.333198548436530E+00
    S   1.637777628736400E-02   3.209517909574110E-01   1.905066848563780E+01
    S   3.326279034321680E+00   1.617831140590300E+00   6.882696797865000E+00
    S   3.624871738538070E+00   5.005270496372790E-01   1.869826543034290E+01
