 &control

     calculation = 'scf',

     restart_mode='from_scratch',

     tprnfor=.true.

     prefix='MoS2',

     outdir='./tmp',

     max_seconds = 84500

     disk_io = 'none'

     pseudo_dir = '~/pseudo/',

 /

 &system

    ibrav = 0,

    nat =  24
    ntyp = 2

    ecutwfc = 45 , ecutrho = 360,

    occupations='smearing', smearing='mv', degauss=0.02

/

  &electrons

     diagonalization='david',

     mixing_mode  =  'local-TF',

     mixing_beta = 0.7

   /

   &ions

     ion_dynamics = 'bfgs'

  /

   &cell

     cell_dynamics = 'bfgs',

   /

 ATOMIC_SPECIES

 Mo  95.5     Mo.pw91-n-van.UPF

 S   32.065   S.pw91-van_ak.UPF

K_POINTS {automatic}
  3  3  1 0 0 0
  
CELL_PARAMETERS (angstrom)
   6.700099481541758E+00   0.000000000000000E+00   0.000000000000000E+00
  -3.675776108310396E+00   5.824636957921012E+00   0.000000000000000E+00
   9.589271002795763E-02  -1.698908469428127E+00   2.272925171909963E+01
  
ATOMIC_POSITIONS (angstrom)
   Mo   1.823728738289170E+00   1.097884693033590E+00   3.995249842298340E+00
   Mo  -1.765886095151580E-01   3.633922973041920E+00   3.159096814970300E+00
   Mo   5.109088401773700E+00   6.995884761332410E-01   3.215690910823050E+00
   Mo   3.862793157473120E+00   3.631401548824730E+00   4.134486001147300E+00
   Mo  -3.262438331225460E-02   8.468812942486280E-01   1.906002050595950E+01
   Mo  -1.757295393051870E+00   3.733894756514950E+00   1.919504660102360E+01
   Mo   3.371374325378710E+00   9.375225206032020E-01   1.907557199586890E+01
   Mo   1.575174756290380E+00   3.835400052872160E+00   1.896298236263840E+01
    S   2.144553898793950E-01   7.899740926769649E-02   4.692578382659000E+00
    S  -1.047142349337310E+00   3.893216960588920E+00   4.948355304703940E+00
    S   3.897544737924530E+00   1.477739667823500E+00   4.745761888231120E+00
    S   1.874133383903080E+00   3.064617860804900E+00   4.345278786855640E+00
    S   2.766588298727750E-03  -1.002811913071080E+00   2.022379884840770E+01
    S  -1.761430913790630E+00   1.642182101527530E+00   2.016492722604260E+01
    S   3.334059855785600E+00  -1.317074459179590E+00   2.029026384667640E+01
    S   1.753829306490040E+00   1.793941868571630E+00   2.014653723825540E+01
    S   1.617996850402400E-01   1.753982485855110E+00   2.482683402767500E+00
    S  -8.451296209310880E-01   5.655007413216850E+00   2.774313538690160E+00
    S   4.567900000938290E+00   2.952491815223400E+00   2.460789115351960E+00
    S   1.423285297498260E+00   4.705819803981690E+00   2.604971069344610E+00
    S   1.553629411958260E+00  -2.937438116626510E-01   1.805261698377080E+01
    S  -3.320421854789490E-01   2.458227247605300E+00   1.814614759499880E+01
    S   4.735605198695800E+00  -3.308934122878550E-01   1.800022662985980E+01
    S   2.838891558443100E+00   2.646962147405220E+00   1.799248757636910E+01
