 &control

     calculation = 'scf',

     restart_mode='from_scratch',

     tprnfor=.true.

     prefix='MoS2',

     outdir='./tmp',

     max_seconds = 84500

     disk_io = 'none'

     pseudo_dir = '~/pseudo/',

 /

 &system

    ibrav = 0,

    nat =  24
    ntyp = 2

    ecutwfc = 45 , ecutrho = 360,

    occupations='smearing', smearing='mv', degauss=0.02

/

  &electrons

     diagonalization='david',

     mixing_mode  =  'local-TF',

     mixing_beta = 0.7

   /

   &ions

     ion_dynamics = 'bfgs'

  /

   &cell

     cell_dynamics = 'bfgs',

   /

 ATOMIC_SPECIES

 Mo  95.5     Mo.pw91-n-van.UPF

 S   32.065   S.pw91-van_ak.UPF

K_POINTS {automatic}
  3  5  1 0 0 0
  
CELL_PARAMETERS (angstrom)
   6.870964239393708E+00   0.000000000000000E+00   0.000000000000000E+00
  -1.743965621176859E+00   2.885770503201972E+00   0.000000000000000E+00
  -2.665301128215625E-01   5.607925939668046E-01   2.318281688215053E+01
  
ATOMIC_POSITIONS (angstrom)
   Mo   1.407025856345290E+00   1.608117329145520E+00   2.915632350079040E+00
   Mo  -1.053999112985090E+00   2.250495334445400E+00   1.390666746173880E+01
   Mo   4.745437260050140E+00   1.583319590908250E+00   3.033138223274820E+00
   Mo   2.408976100816330E+00   1.899889524394230E+00   1.506388313984250E+01
   Mo   5.613384381986590E-01   8.242846073290619E-01   8.608769735443520E+00
   Mo   8.068615723609220E-01   1.196486390742630E+00   2.030872605727020E+01
   Mo   4.065481498640200E+00   1.026048103110670E+00   8.593948864399920E+00
   Mo   4.235060446595820E+00   1.177462807696850E+00   2.037162931940940E+01
    S   3.143248762831000E+00   3.772349044502100E-01   3.995087057856160E+00
    S   1.835502008050480E+00  -1.884008158798610E-01   1.551492287268310E+01
    S   6.616137540623530E+00   3.620112095145590E-01   3.894029187550910E+00
    S   4.297670731851090E+00   1.075312322388240E+00   1.562380150404850E+01
    S  -7.567036735848290E-01   2.070539065067790E+00   9.534904260810389E+00
    S  -7.678664678920560E-01   2.253130957494140E+00   2.122652713021500E+01
    S   2.087433214838820E+00   2.269635566012250E+00   9.666266160772850E+00
    S   2.428739185190650E+00   2.252340660934780E+00   2.141474259414810E+01
    S   3.081192576060550E+00   2.452230710985590E+00   1.906498757628290E+00
    S   1.357302265322740E+00   1.145014317408880E+00   1.343739130612300E+01
    S   6.605585343303350E+00   2.719286108720550E+00   1.876930724693740E+00
    S   3.919934496715510E+00   2.808914422255360E+00   1.350054098607880E+01
    S   3.800538523177180E-01   3.069890119361660E+00   7.442705729564470E+00
    S   1.003001323790020E+00   3.192730746075810E+00   1.941512029403710E+01
    S   3.908352097302730E+00   2.992781109761830E+00   7.541525169101450E+00
    S   4.275548709558780E+00   3.160150774603670E+00   1.932928607618080E+01
