 &control

     calculation = 'scf',

     restart_mode='from_scratch',

     tprnfor=.true.

     prefix='MoS2',

     outdir='./tmp',

     max_seconds = 84500

     disk_io = 'none'

     pseudo_dir = '~/pseudo/',

 /

 &system

    ibrav = 0,

    nat =  24
    ntyp = 2

    ecutwfc = 45 , ecutrho = 360,

    occupations='smearing', smearing='mv', degauss=0.02

/

  &electrons

     diagonalization='david',

     mixing_mode  =  'local-TF',

     mixing_beta = 0.7

   /

   &ions

     ion_dynamics = 'bfgs'

  /

   &cell

     cell_dynamics = 'bfgs',

   /

 ATOMIC_SPECIES

 Mo  95.5     Mo.pw91-n-van.UPF

 S   32.065   S.pw91-van_ak.UPF

K_POINTS {automatic}
  3  3  1 0 0 0
  
CELL_PARAMETERS (angstrom)
   6.771416934192376E+00   0.000000000000000E+00   0.000000000000000E+00
  -3.270314044058902E+00   6.074380615763486E+00   0.000000000000000E+00
   5.227785913624855E+00  -2.405663483547954E+00   2.085644631168539E+01
  
ATOMIC_POSITIONS (angstrom)
   Mo   3.647533865692610E+00   4.241899462907390E-01   4.231802311269210E+00
   Mo   1.834103878988050E+00   3.444870960304540E+00   3.075774084137540E+00
   Mo   7.230805723511260E+00  -6.789505052260990E-02   3.101477445457910E+00
   Mo   5.504434506165970E+00   3.356829834512410E+00   4.149496321296690E+00
   Mo   3.124054008460500E+00   6.995471436481310E-01   1.753836501912960E+01
   Mo   1.465696445421100E+00   3.624125227190040E+00   1.692369682011170E+01
   Mo   6.467470349076950E+00   5.583139964570710E-01   1.707666668349880E+01
   Mo   5.026301256294500E+00   3.677733797820610E+00   1.722253349243850E+01
    S   4.922970207758770E-01   2.263936961090480E+00   4.432877363574150E+00
    S  -1.077808358296580E+00   5.279116227945520E+00   4.814282585146870E+00
    S   4.285396256179420E+00   2.060166329331880E+00   5.410365076964800E+00
    S   1.826073451609820E+00   4.911309680168560E+00   4.470973118235390E+00
    S   4.835835690815710E+00  -7.312466214926510E-01   1.821161192136060E+01
    S   3.433015750296760E+00   2.494585618908290E+00   1.852072826475020E+01
    S   8.575306440381420E+00  -5.925477154920850E-01   1.845586357778560E+01
    S   6.538775764932560E+00   2.414226324445720E+00   1.830807677829490E+01
    S   2.285231582295130E+00   1.126180316262270E+00   2.583102602915240E+00
    S   5.381639322030300E-02   4.026579952775540E+00   2.211678678538280E+00
    S   5.588421732633970E+00   5.767000246621320E-01   2.543385311650830E+00
    S   3.970763564981410E+00   4.093974439364010E+00   2.458463969407320E+00
    S   6.851831297002580E+00  -1.510562510771720E+00   1.613747415146680E+01
    S   4.919089745903370E+00   1.244715283546580E+00   1.629743232786310E+01
    S   9.969188664629510E+00  -1.857488247693160E+00   1.600540360102950E+01
    S   8.514185759078700E+00   1.464396363418500E+00   1.620179731325040E+01
