 &control

     calculation = 'scf',

     restart_mode='from_scratch',

     tprnfor=.true.

     prefix='MoS2',

     outdir='./tmp',

     max_seconds = 84500

     disk_io = 'none'

     pseudo_dir = '~/pseudo/',

 /

 &system

    ibrav = 0,

    nat =  24
    ntyp = 2

    ecutwfc = 45 , ecutrho = 360,

    occupations='smearing', smearing='mv', degauss=0.02

/

  &electrons

     diagonalization='david',

     mixing_mode  =  'local-TF',

     mixing_beta = 0.7

   /

   &ions

     ion_dynamics = 'bfgs'

  /

   &cell

     cell_dynamics = 'bfgs',

   /

 ATOMIC_SPECIES

 Mo  95.5     Mo.pw91-n-van.UPF

 S   32.065   S.pw91-van_ak.UPF

K_POINTS {automatic}
  3  6  1 0 0 0
  
CELL_PARAMETERS (angstrom)
   6.939300435428659E+00   0.000000000000000E+00   0.000000000000000E+00
  -1.726775849282718E+00   2.962875605899226E+00   0.000000000000000E+00
  -2.625965321417542E-01  -1.196788565978909E+01   2.346381300198643E+01
  
ATOMIC_POSITIONS (angstrom)
   Mo   3.487168540300360E+00   9.874519043183420E-02   3.157504576466650E+00
   Mo  -1.709428527751970E+00  -6.469150732681920E+00   1.568071858133150E+01
   Mo   6.798051634369230E+00   4.751687669879770E-01   3.145067355697790E+00
   Mo   1.633198157962020E+00  -6.389860587918630E+00   1.491254779609560E+01
   Mo   3.722779323000400E-01  -2.847483324672370E+00   8.133903045720020E+00
   Mo   8.754945224585140E-01  -8.927689412288540E+00   2.040857311704110E+01
   Mo   3.960847193490530E+00  -2.950947396564450E+00   7.916838504026130E+00
   Mo   4.416516880939380E+00  -8.958769768387530E+00   2.038916167328620E+01
    S   5.067969499607160E+00   1.157763560044490E+00   4.180991232163280E+00
    S  -4.425878199744620E-02  -5.494107971585050E+00   1.646953342524870E+01
    S   8.455052855023689E+00   1.173248338180990E+00   4.145254023338720E+00
    S   3.374957505563180E+00  -5.534633085405760E+00   1.630724628626210E+01
    S  -1.396545328369910E+00  -1.965184354312230E+00   9.046200542563090E+00
    S  -8.540176627623860E-01  -7.848100917390540E+00   2.147751651702440E+01
    S   2.054641280361940E+00  -1.946659161883100E+00   9.099216255486530E+00
    S   2.928789035928140E+00  -7.824902036572850E+00   2.145915698668450E+01
    S   5.034465294651140E+00  -7.041570866241440E-01   1.968539905835360E+00
    S  -1.880215897188290E-02  -7.482043718651300E+00   1.444249681902430E+01
    S   8.534088416706171E+00  -6.700870608014250E-01   2.158654204122730E+00
    S   3.356211549497100E+00  -7.507409883774200E+00   1.415621718652430E+01
    S  -1.215271082417820E+00  -3.941152291650040E+00   7.043339994621410E+00
    S  -6.901314152218020E-01  -9.727724409957860E+00   1.935628421105500E+01
    S   2.347637415344020E+00  -3.926574703101050E+00   7.003414723554180E+00
    S   2.595809773071100E+00  -9.898461548611669E+00   1.961831641895690E+01
