 &control

     calculation = 'scf',

     restart_mode='from_scratch',

     tprnfor=.true.

     prefix='MoS2',

     outdir='./tmp',

     max_seconds = 84500

     disk_io = 'none'

     nstep= 12

     pseudo_dir = '~/pseudo/',

 /

 &system

    ibrav = 0,

    nat =  33
    ntyp = 2

    ecutwfc = 45 , ecutrho = 360,

    occupations='smearing', smearing='mv', degauss=0.02

/

  &electrons

     diagonalization='david',

     mixing_mode  =  'local-TF',

     mixing_beta = 0.7

   /

   &ions

     ion_dynamics = 'bfgs'

  /

   &cell

     cell_dynamics = 'bfgs',

   /

 ATOMIC_SPECIES

 Mo  95.5     Mo.pw91-n-van.UPF

 S   32.065   S.pw91-van_ak.UPF

K_POINTS {automatic}
  2  2  2 0 0 0
  
CELL_PARAMETERS (angstrom)
   1.028653861887240E+01   0.000000000000000E+00   0.000000000000000E+00
  -3.774826382076170E+00   9.530353352305619E+00   0.000000000000000E+00
  -8.173656414780810E-01  -5.996549615391460E+00   8.322852734491541E+00
  
ATOMIC_POSITIONS (angstrom)
   Mo   5.100550754674780E+00  -6.826921847949430E-01   8.221712882077201E+00
   Mo   6.901215505737240E+00  -1.076457522077680E-01   2.701483075185140E+00
   Mo  -1.111332370705760E+00   2.476383312611320E+00   5.348232359216120E+00
   Mo  -2.293133297169190E+00  -1.079547109200090E+00   7.780937097958470E+00
   Mo   4.491416981895100E+00   8.236513453782790E+00   4.315706492885820E-01
   Mo   1.510527344824690E+00   3.504918887370340E+00   4.536309059717610E+00
   Mo   6.176811008376010E+00  -3.361766766057710E+00   8.036609181833089E+00
   Mo   6.471532351921910E+00  -1.741654071017510E+00   5.561798097050320E+00
   Mo   1.029613702161900E-01   4.431882232374750E+00   7.084544628050410E+00
   Mo   4.101209434249290E+00   6.606652139330780E+00   2.621036123674810E+00
   Mo   1.076248150468000E+00   1.760447422759850E+00   6.988599754322580E+00
    S   2.150138828909330E+00   5.917324013333050E+00   3.945754208575560E+00
    S   4.321997690810540E+00  -2.555199845572890E+00   6.650351417642900E+00
    S   7.247450933924180E+00   1.972903797702760E+00   4.043277465765850E+00
    S   4.903214635047880E+00  -5.919574532432720E-01   4.016097611322880E+00
    S   5.327243939228310E+00   1.412693170948870E+00   1.113819419317520E+00
    S   1.214363860344640E-02  -4.462517054051000E-01   7.657407952868850E+00
    S  -6.321020000128960E-01   4.689092288733240E+00   4.762592179823160E+00
    S   1.557800803171100E+00   2.690246442449480E+00   2.160338583780230E+00
    S   3.455059332683530E+00   8.020293457627951E-01   6.863727746929020E+00
    S   2.398941667262420E+00   3.894731785081070E+00   6.775395826360940E+00
    S   2.364958164180590E+00   7.642198832400290E+00   1.222205414142540E+00
    S   3.827152855349810E+00   4.721237588543390E+00   9.846515714645080E-01
    S   7.398199410846670E-01   1.201296943618560E+00   4.715463162111060E+00
    S   3.971508650716990E+00   3.071405210708540E+00   4.228514470114940E+00
    S  -1.150463369108610E+00   2.532703409716620E+00   7.687335185338300E+00
    S   7.645478664876870E+00   4.340291078167080E+00   1.404375719658430E+00
    S   8.188102954592040E+00  -3.135204911421370E+00   6.696617191955640E+00
    S   8.496187829587249E+00   9.641375520158250E-01   1.112092304279540E+00
    S   6.682496039975000E+00   4.590079238064570E-01   6.724450569085480E+00
    S   8.409643374580860E+00  -1.140686854293010E+00   4.159320442097510E+00
    S   6.238526870362450E+00   7.161106390212520E+00   1.534877815596290E+00
    S   5.108560622829570E+00   4.764405406089870E+00   4.023337587230010E+00
