 &control

     calculation = 'scf',

     restart_mode='from_scratch',

     tprnfor=.true.

     prefix='MoS2',

     outdir='./tmp',

     max_seconds = 84500

     disk_io = 'none'

     nstep= 12

     pseudo_dir = '~/pseudo/',

 /

 &system

    ibrav = 0,

    nat =  33
    ntyp = 2

    ecutwfc = 45 , ecutrho = 360,

    occupations='smearing', smearing='mv', degauss=0.02

/

  &electrons

     diagonalization='david',

     mixing_mode  =  'local-TF',

     mixing_beta = 0.7

   /

   &ions

     ion_dynamics = 'bfgs'

  /

   &cell

     cell_dynamics = 'bfgs',

   /

 ATOMIC_SPECIES

 Mo  95.5     Mo.pw91-n-van.UPF

 S   32.065   S.pw91-van_ak.UPF

K_POINTS {automatic}
  2  2  2 0 0 0
  
CELL_PARAMETERS (angstrom)
   1.028708193874770E+01   0.000000000000000E+00   0.000000000000000E+00
   5.168153554694490E+00   8.740929836229450E+00   0.000000000000000E+00
   3.205228070962840E+00   1.411355369369660E+00   9.743573893576549E+00
  
ATOMIC_POSITIONS (angstrom)
   Mo   6.508741841879740E+00   3.434865133227860E+00   8.573034104675180E+00
   Mo   6.323879757086230E+00   5.306132876445060E+00   2.857285699864380E+00
   Mo   1.346468272122220E+01   5.697375878157750E+00   7.428313502404740E+00
   Mo   1.552386951245830E+01   6.013433475032970E+00   9.105386235001440E+00
   Mo   7.181119499194990E+00   7.735686259481490E+00   7.980582259105630E-01
   Mo   1.117299294827420E+01   6.955407400764600E+00   6.468908440006160E+00
   Mo   7.983757138965460E+00   5.784549292296440E+00   9.346024270025980E+00
   Mo   7.295705707540370E+00   5.742000151627420E+00   5.487538874245680E+00
   Mo   1.072915936532060E+01   5.067528272769260E+00   8.606869647189530E+00
   Mo   7.746014729739060E+00   7.614129092364370E+00   3.557670746696510E+00
   Mo   1.252628916701970E+01   7.564992695912620E+00   9.217240757275979E+00
    S   9.512394525611350E+00   6.436052412054570E+00   4.839993008950000E+00
    S   8.452085350808380E+00   4.346050243755920E+00   7.444087722335830E+00
    S   4.206605027109110E+00   4.292200409380190E+00   3.740349257251450E+00
    S   7.402262717327310E+00   3.644106263941650E+00   4.176499702014100E+00
    S   6.649391290090880E+00   3.542342834858220E+00   1.051544136026310E+00
    S   1.152006077274050E+01   6.464715636948910E+00   5.123685060195100E-01
    S   1.166570026651220E+01   4.606073144502650E+00   6.362497519337570E+00
    S   1.098900291929530E+01   2.553555233482700E+00   8.862070890805709E+00
    S   1.247540262701750E+01   1.016685996040180E+01   9.661455743120460E+00
    S   9.990517719491150E+00   7.487354575957910E+00   8.384034459687880E+00
    S   8.402095576102720E+00   6.024108778356530E+00   1.805688704037580E+00
    S   1.398452816558080E+00   7.426679922575540E-01   2.339123105427910E+00
    S   1.342080931406490E+01   8.082823280356861E+00   6.956402676198240E+00
    S   1.106041385250390E+01   9.057713443449140E+00   5.213788668902440E+00
    S   1.306248104162460E+01   5.197735136052760E+00   9.783152256290130E+00
    S   3.071083206086640E+00   3.247168660501290E+00   7.684464497963031E-01
    S   6.884682650977710E+00   7.216136758852440E+00   7.757476124851020E+00
    S   5.064799779862360E+00   6.537529939331670E+00   1.037646192533920E+00
    S   5.244584176303020E+00   4.717919093822970E+00   6.900359260036260E+00
    S   5.680640803607010E+00   7.039860223753360E+00   4.478580112998240E+00
    S   4.476712368078160E+00   1.962547912722020E+00   8.759751361763371E+00
    S   4.116581726780600E+00   6.487775745542850E-01   4.100161874801720E+00
