 &control

     calculation = 'scf',

     restart_mode='from_scratch',

     tprnfor=.true.

     prefix='MoS2',

     outdir='./tmp',

     max_seconds = 84500

     disk_io = 'none'

     pseudo_dir = '~/pseudo/',

 /

 &system

    ibrav = 0,

    nat =  24
    ntyp = 2

    ecutwfc = 45 , ecutrho = 360,

    occupations='smearing', smearing='mv', degauss=0.02

/

  &electrons

     diagonalization='david',

     mixing_mode  =  'local-TF',

     mixing_beta = 0.7

   /

   &ions

     ion_dynamics = 'bfgs'

  /

   &cell

     cell_dynamics = 'bfgs',

   /

 ATOMIC_SPECIES

 Mo  95.5     Mo.pw91-n-van.UPF

 S   32.065   S.pw91-van_ak.UPF

K_POINTS {automatic}
  3  5  1 0 0 0
  
CELL_PARAMETERS (angstrom)
   6.751058024182820E+00   0.000000000000000E+00   0.000000000000000E+00
  -1.684424218476234E+00   2.965043129424171E+00   0.000000000000000E+00
  -6.734112081840462E-01   4.130504893872684E+00   2.327496537287644E+01
  
ATOMIC_POSITIONS (angstrom)
   Mo   5.937630693970370E-01   1.996140722196750E+00   2.949097771550430E+00
   Mo  -7.971269175208450E-01   3.943601556840670E+00   1.450876849515900E+01
   Mo   4.061678710339300E+00   1.895513908847510E+00   3.130472285970040E+00
   Mo   2.623878555070390E+00   3.861141766117090E+00   1.508399930258740E+01
   Mo   1.212838709055270E+00   3.176927184215090E+00   8.512633981771520E+00
   Mo   9.783591388064810E-01   5.216027756219250E+00   2.044307905027210E+01
   Mo   4.579697230476770E+00   3.173378171751640E+00   8.344665632779311E+00
   Mo   4.391723287378020E+00   5.194311373708730E+00   2.008887775754190E+01
    S   2.372218091795270E+00   2.976815834241330E+00   4.077433944140820E+00
    S   9.400295244025280E-01   4.919680798241480E+00   1.592122483599190E+01
    S   5.627483506969870E+00   3.027352084687620E+00   4.072522498757830E+00
    S   4.332013786500270E+00   5.011013154785590E+00   1.575236229766030E+01
    S  -5.286947919338120E-01   3.955170465288980E+00   9.493288422479409E+00
    S  -7.553901297334080E-01   6.157011096027110E+00   2.133157722785770E+01
    S   2.885657243424460E+00   3.959724655127940E+00   9.483952256949850E+00
    S   2.672478691519410E+00   6.088483072047870E+00   2.129159281611810E+01
    S   2.258580889067090E+00   1.062180976599640E+00   2.019831480747780E+00
    S   1.025010080641680E+00   2.985196089981020E+00   1.372760175851950E+01
    S   5.675045894623200E+00   1.075656620245340E+00   1.987370860780330E+00
    S   4.248700151333170E+00   3.054551538563500E+00   1.379970682107480E+01
    S  -5.287831784316050E-01   2.043566424536440E+00   7.395501389181030E+00
    S  -7.406481559720089E-01   4.196178584197640E+00   1.921507681799630E+01
    S   2.856642229046370E+00   2.003951175142760E+00   7.442946794011030E+00
    S   2.661594161182650E+00   4.098150923205300E+00   1.926426718850630E+01
