 &control

     calculation = 'scf',

     restart_mode='from_scratch',

     tprnfor=.true.

     prefix='MoS2',

     outdir='./tmp',

     max_seconds = 84500

     disk_io = 'none'

     pseudo_dir = '~/pseudo/',

 /

 &system

    ibrav = 0,

    nat =  24
    ntyp = 2

    ecutwfc = 45 , ecutrho = 360,

    occupations='smearing', smearing='mv', degauss=0.02

/

  &electrons

     diagonalization='david',

     mixing_mode  =  'local-TF',

     mixing_beta = 0.7

   /

   &ions

     ion_dynamics = 'bfgs'

  /

   &cell

     cell_dynamics = 'bfgs',

   /

 ATOMIC_SPECIES

 Mo  95.5     Mo.pw91-n-van.UPF

 S   32.065   S.pw91-van_ak.UPF

K_POINTS {automatic}
  3  3  1 0 0 0
  
CELL_PARAMETERS (angstrom)
   6.454559912900000E+00   0.000000000000000E+00   0.000000000000000E+00
   3.214262179500000E+00   5.575351915800000E+00   0.000000000000000E+00
   1.841401032300000E+00   4.410110183000000E-01   1.730423061160000E+01
  
ATOMIC_POSITIONS (angstrom)
   Mo   7.283402734103650E+00   1.263933726019250E+00   3.053455237991200E+00
   Mo   5.530731239215410E+00   4.404489310614790E+00   2.933113895614240E+00
   Mo   8.607856577126739E+00   4.184574181167490E+00   3.029107226554590E+00
   Mo   4.002896798829650E+00   1.346955897563120E+00   3.151964989785490E+00
   Mo   4.286396407551960E+00   4.650433119455970E+00   1.457458216821310E+01
   Mo   6.067819087673330E+00   1.894637143622890E+00   1.425427470376140E+01
   Mo   2.519463481964680E+00   1.821625305200400E+00   1.430774032676900E+01
   Mo   7.485658446984380E+00   4.591546375884280E+00   1.457351163856290E+01
    S   2.490408908212020E+00   2.280131622317810E+00   1.509020471619240E+00
    S   7.112380563235440E+00   5.325038612872340E+00   1.411541042131300E+00
    S   3.998092903109530E+00   5.176490901593840E+00   1.186945415791640E+00
    S   5.710109309656760E+00   2.459230969053490E+00   1.487328724299520E+00
    S   5.811484496620520E+00   3.630624269989050E+00   1.612951141365740E+01
    S   7.567618604745520E+00   9.340923761089740E-01   1.616069731103440E+01
    S   4.487642036439850E+00   9.875817069411780E-01   1.592935179020140E+01
    S   9.018082584008351E+00   3.542794653528380E+00   1.603764586866640E+01
    S   5.800886304291360E+00   3.805185357775900E+00   1.272350710389590E+01
    S   7.542873774090430E+00   9.031354918066929E-01   1.262069283859480E+01
    S   4.259125790610600E+00   7.634570935217050E-01   1.268003489209050E+01
    S   9.090895628969950E+00   3.805946607897180E+00   1.296340535340080E+01
    S   2.221906750501510E+00   2.241162263482170E+00   4.634353896188670E+00
    S   7.140038609888370E+00   5.211525514715710E+00   4.352159056447060E+00
    S   4.131044139781190E+00   5.130892831408040E+00   4.623869523227390E+00
    S   5.461589527037230E+00   2.343229869824320E+00   4.370786575786190E+00
