 &control

     calculation = 'scf',

     restart_mode='from_scratch',

     tprnfor=.true.

     prefix='MoS2',

     outdir='./tmp',

     max_seconds = 84500

     disk_io = 'none'

     pseudo_dir = '~/pseudo/',

 /

 &system

    ibrav = 0,

    nat =  24
    ntyp = 2

    ecutwfc = 45 , ecutrho = 360,

    occupations='smearing', smearing='mv', degauss=0.02

/

  &electrons

     diagonalization='david',

     mixing_mode  =  'local-TF',

     mixing_beta = 0.7

   /

   &ions

     ion_dynamics = 'bfgs'

  /

   &cell

     cell_dynamics = 'bfgs',

   /

 ATOMIC_SPECIES

 Mo  95.5     Mo.pw91-n-van.UPF

 S   32.065   S.pw91-van_ak.UPF

K_POINTS {automatic}
  3  5  1 0 0 0
  
CELL_PARAMETERS (angstrom)
   6.809525460225001E+00   0.000000000000000E+00   0.000000000000000E+00
  -1.721202223453594E+00   2.943708814683976E+00   0.000000000000000E+00
  -1.541910312193626E+00   1.724558657012556E+00   2.351041605438386E+01
  
ATOMIC_POSITIONS (angstrom)
   Mo   4.695591019930930E-02   1.704411550364990E+00   8.821752656159489E+00
   Mo  -1.573052013023300E+00   2.410175652050340E+00   2.070304712803560E+01
   Mo   3.481398106747510E+00   1.629427667979330E+00   8.371870485009881E+00
   Mo   1.852381298127580E+00   2.433880091747050E+00   2.088003701946980E+01
   Mo  -2.834809141268730E-01  -7.051805518476520E-01   3.117208874594780E+00
   Mo  -1.341448616426820E+00   6.534317666353050E-02   1.488770765149320E+01
   Mo   3.091044448075620E+00  -6.910645101473790E-01   2.878145659340270E+00
   Mo   2.042074015062930E+00   7.247945729493190E-02   1.441011181755940E+01
    S   1.948402446918520E+00   2.581310788704080E+00   9.586337941960760E+00
    S   5.916702196155040E-02   3.381271534637520E+00   2.183416788766300E+01
    S   5.322406293993340E+00   2.717138743450520E+00   9.701973513588650E+00
    S   3.382389819753740E+00   3.419382665505230E+00   2.183257046383060E+01
    S  -2.874043592595010E-01   1.168829097783380E+00   1.977165582489530E+00
    S  -1.396929146460800E+00   2.118993587861850E+00   1.365739743199830E+01
    S   3.132134685297430E+00   1.186554536381310E+00   1.944205783807600E+00
    S   2.058139605428170E+00   2.123322606923280E+00   1.357471953654330E+01
    S  -2.827748536598680E-01   3.150070129244480E+00   3.984907998317150E+00
    S  -1.370117182979580E+00   4.093939909678440E+00   1.562555040357480E+01
    S   3.118129550619540E+00   3.140856355864770E+00   4.044233883233360E+00
    S   2.004688221101680E+00   4.057075127682150E+00   1.573906450827040E+01
    S   2.010477408994040E+00   5.823187960311530E-01   7.490886857578230E+00
    S   7.565096636931100E-02   1.406356852765290E+00   1.974030873254580E+01
    S   5.375761013572190E+00   6.718747899453230E-01   7.521393449969280E+00
    S   3.492256779054260E+00   1.504368439002530E+00   1.977201031144410E+01
