 &control

     calculation = 'scf',

     restart_mode='from_scratch',

     tprnfor=.true.

     prefix='MoS2',

     outdir='./tmp',

     max_seconds = 84500

     disk_io = 'none'

     nstep= 25

     pseudo_dir = '~/pseudo/',

 /

 &system

    ibrav = 0,

    nat =  21
    ntyp = 2

    ecutwfc = 45 , ecutrho = 360,

    occupations='smearing', smearing='mv', degauss=0.02

/

  &electrons

     diagonalization='david',

     mixing_mode  =  'local-TF',

     mixing_beta = 0.7

   /

   &ions

     ion_dynamics = 'bfgs'

  /

   &cell

     cell_dynamics = 'bfgs',

   /

 ATOMIC_SPECIES

 Mo  95.5     Mo.pw91-n-van.UPF

 S   32.065   S.pw91-van_ak.UPF

K_POINTS {automatic}
  3  3  2 0 0 0
  
CELL_PARAMETERS (angstrom)
   7.544575138320640E+00   0.000000000000000E+00   0.000000000000000E+00
  -2.825261372415730E+00   7.104845730848910E+00   0.000000000000000E+00
  -7.942261146965039E-02  -3.585184952434130E+00   7.987028419726730E+00
  
ATOMIC_POSITIONS (angstrom)
   Mo   5.701120434044070E-01   2.636650373009800E+00   9.227350110731209E-01
   Mo   4.966632201659330E+00  -8.226679346904340E-01   7.557824706560770E+00
   Mo   4.023284865056160E+00   5.440750523264270E+00   4.024439628621900E+00
   Mo   5.382373555689770E+00   4.796052541375110E+00   1.658697634415830E+00
   Mo   2.968487075805160E+00   2.754830490863130E+00   1.956245711923200E+00
   Mo   1.307539809882480E+00   7.403430678243590E-01   2.565086549963810E+00
   Mo   2.422824117343470E+00   9.150606115553270E-01   1.877734066613840E-01
    S   3.088976475136500E+00   5.228881614925080E+00   1.778602802829390E+00
    S   5.738231706403770E+00   2.472194422342900E+00   1.744247074145370E+00
    S   9.839540155580080E-01   3.018755329030490E+00   3.281338578648140E+00
    S   4.501040931876750E+00  -1.517819432334630E+00   5.119193889624170E+00
    S  -4.652551333542150E-01  -1.376270933732760E+00   6.533073792846110E+00
    S   4.082427246150480E+00   3.160246589648080E+00   4.252114157574190E+00
    S  -1.396604570606780E-01   5.137297008138200E+00   1.731637777218540E-01
    S  -1.130714468376650E+00   5.564954930596380E+00   3.642510647359470E+00
    S  -1.926688625803580E+00   4.928471249580540E+00  -9.291412919790190E-01
    S   4.220117461621600E+00  -3.103385002092840E+00   6.571779458890360E+00
    S   2.559032291286620E+00  -4.122093324885040E-01   7.514236287565570E+00
    S   3.658761343326800E+00   4.388207188186720E-01   2.068938938937360E+00
    S   6.684169034671940E+00   5.692409492031200E-01   3.906682390603590E+00
    S   2.206975855026700E-01   1.917676844367670E-01   6.252166247925840E-01
