 &control

     calculation = 'scf',

     restart_mode='from_scratch',

     tprnfor=.true.

     prefix='MoS2',

     outdir='./tmp',

     max_seconds = 84500

     disk_io = 'none'

     pseudo_dir = '~/pseudo/',

 /

 &system

    ibrav = 0,

    nat =  24
    ntyp = 2

    ecutwfc = 45 , ecutrho = 360,

    occupations='smearing', smearing='mv', degauss=0.02

/

  &electrons

     diagonalization='david',

     mixing_mode  =  'local-TF',

     mixing_beta = 0.7

   /

   &ions

     ion_dynamics = 'bfgs'

  /

   &cell

     cell_dynamics = 'bfgs',

   /

 ATOMIC_SPECIES

 Mo  95.5     Mo.pw91-n-van.UPF

 S   32.065   S.pw91-van_ak.UPF

K_POINTS {automatic}
  3  6  1 0 0 0
  
CELL_PARAMETERS (angstrom)
   6.789967901743107E+00   0.000000000000000E+00   0.000000000000000E+00
  -1.663062538502758E+00   2.965943763107813E+00   0.000000000000000E+00
  -5.164551922440694E-01  -8.284784107665459E+00   2.393369080077091E+01
  
ATOMIC_POSITIONS (angstrom)
   Mo   2.748302080277700E+00   5.951469711216120E-01   3.180959219223680E+00
   Mo  -1.521338970565040E+00  -4.020278998728660E+00   1.601347958190510E+01
   Mo   5.999287424240840E+00   6.413343729175980E-01   3.373673218377840E+00
   Mo   1.835040328907660E+00  -3.984258367651840E+00   1.534475804954450E+01
   Mo   4.498435887549160E-01  -1.481540457877590E+00   8.275827643793299E+00
   Mo   8.291211261994270E-01  -5.784915997044510E+00   2.095823115208900E+01
   Mo   3.840534565138780E+00  -1.628845287835060E+00   8.081799825184961E+00
   Mo   4.222364372001930E+00  -5.739562964286100E+00   2.060675501035520E+01
    S   4.372422903210690E+00   1.591370303040150E+00   4.322726081081880E+00
    S   2.484279982653630E-01  -3.261937064618670E+00   1.651904056202570E+01
    S   7.886289591452290E+00   1.694425109103860E+00   4.277671943429760E+00
    S   3.326102174075760E+00  -3.142049280313880E+00   1.674288369112590E+01
    S  -9.462135620306340E-01  -5.338238844860780E-01   9.330874726933150E+00
    S  -8.951717344802650E-01  -4.641366361603810E+00   2.185818810021540E+01
    S   2.462972607974960E+00  -5.414034405484920E-01   9.163248083934080E+00
    S   2.288111747883060E+00  -4.595038922255860E+00   2.170489315995960E+01
    S   4.495881115652150E+00  -2.716061751103120E-01   2.229335090158240E+00
    S   2.896962930517010E-02  -5.254540938893190E+00   1.463862630579800E+01
    S   7.612964842741400E+00  -3.943234254060310E-01   2.275558306083510E+00
    S   3.366850341756240E+00  -4.962823290728870E+00   1.437702811967520E+01
    S  -1.116682205575590E+00  -2.483994813823710E+00   7.205739746420110E+00
    S  -8.587429756444140E-01  -6.570403127685350E+00   1.972554667077140E+01
    S   2.196529271394970E+00  -2.491106330723980E+00   7.217912946268010E+00
    S   2.492181960126330E+00  -6.436982410142420E+00   1.967881187751970E+01
