 &control

     calculation = 'scf',

     restart_mode='from_scratch',

     tprnfor=.true.

     prefix='MoS2',

     outdir='./tmp',

     max_seconds = 84500

     disk_io = 'none'

     pseudo_dir = '~/pseudo/',

 /

 &system

    ibrav = 0,

    nat =  24
    ntyp = 2

    ecutwfc = 45 , ecutrho = 360,

    occupations='smearing', smearing='mv', degauss=0.02

/

  &electrons

     diagonalization='david',

     mixing_mode  =  'local-TF',

     mixing_beta = 0.7

   /

   &ions

     ion_dynamics = 'bfgs'

  /

   &cell

     cell_dynamics = 'bfgs',

   /

 ATOMIC_SPECIES

 Mo  95.5     Mo.pw91-n-van.UPF

 S   32.065   S.pw91-van_ak.UPF

K_POINTS {automatic}
  3  3  2 0 0 0
  
CELL_PARAMETERS (angstrom)
   6.548643114228818E+00   0.000000000000000E+00   0.000000000000000E+00
  -3.516958577441411E+00   5.840325620141639E+00   0.000000000000000E+00
  -8.273840743950416E-01  -1.445262536312869E+00   1.129768386797876E+01
  
ATOMIC_POSITIONS (angstrom)
   Mo   5.801222108202601E-01   1.334356519464850E+00   3.385012527659590E+00
   Mo  -1.562495355035460E+00   4.136433195752730E+00   2.561176264344180E+00
   Mo   3.499615436690600E+00   1.440535202436300E+00   2.463662972745660E+00
   Mo   1.865770246911620E+00   4.463572041578250E+00   3.365156634606070E+00
   Mo   1.797621163311650E-01  -3.533234861234450E-01   8.485483962960449E+00
   Mo  -1.777836758459030E+00   2.470290581480570E+00   8.460045495313571E+00
   Mo   3.563727501255680E+00  -4.246372545899600E-01   8.191339377799750E+00
   Mo   1.665250434865570E+00   2.520413377348370E+00   8.325007613523381E+00
    S   1.000506275843630E+00  -6.755334175819310E-01   4.108757262195270E+00
    S  -1.233652579311380E-01   3.379518318233520E+00   3.661613049105620E+00
    S   5.184238617091430E+00   5.528544373086840E-01   4.199966487567850E+00
    S   2.064718412458560E+00   2.231699104631370E+00   4.047572073832840E+00
    S  -1.198935247922060E+00   8.915027379694930E-01   9.444062426504990E+00
    S  -2.986747247543310E+00   3.600554833036540E+00   9.427784187695490E+00
    S   1.808566037025830E+00   8.302320850779500E-01   9.403868907212070E+00
    S   2.202315241002630E-01   3.666511686893050E+00   9.529619839870350E+00
    S   1.556822215489080E+00   6.364888406184080E-01   1.763826067201250E+00
    S   3.338818706683390E-01   5.326099204842540E+00   2.148954530046680E+00
    S   5.071897100833650E+00   2.228362980409020E+00   1.459155635958060E+00
    S   2.962044016946860E+00   3.750464935483730E+00   1.906820557890800E+00
    S  -1.536822118289330E-02   1.932590677854370E+00   7.265522779609850E+00
    S  -1.652882005435190E+00   4.531351827992060E+00   7.302283953796220E+00
    S   3.281225389623870E+00   1.614702338407520E+00   7.263330162573590E+00
    S   1.734142251436680E+00   4.648328395396510E+00   7.356034268694080E+00
