 &control

     calculation = 'scf',

     restart_mode='from_scratch',

     tprnfor=.true.

     prefix='MoS2',

     outdir='./tmp',

     max_seconds = 84500

     disk_io = 'none'

     pseudo_dir = '~/pseudo/',

 /

 &system

    ibrav = 0,

    nat =  24
    ntyp = 2

    ecutwfc = 45 , ecutrho = 360,

    occupations='smearing', smearing='mv', degauss=0.02

/

  &electrons

     diagonalization='david',

     mixing_mode  =  'local-TF',

     mixing_beta = 0.7

   /

   &ions

     ion_dynamics = 'bfgs'

  /

   &cell

     cell_dynamics = 'bfgs',

   /

 ATOMIC_SPECIES

 Mo  95.5     Mo.pw91-n-van.UPF

 S   32.065   S.pw91-van_ak.UPF

K_POINTS {automatic}
  3  3  2 0 0 0
  
CELL_PARAMETERS (angstrom)
   6.623783176310229E+00   0.000000000000000E+00   0.000000000000000E+00
  -3.172597453485962E+00   5.749793406090835E+00   0.000000000000000E+00
  -3.465122179384477E-01  -6.231928210193189E-01   8.573904436822469E+00
  
ATOMIC_POSITIONS (angstrom)
   Mo   1.735660723014770E-02   1.798628083840240E+00   1.992256424396950E+00
   Mo  -1.583770658934720E+00   4.673124035402180E+00   1.840748245032920E+00
   Mo   3.313871215849450E+00   1.833499215580890E+00   1.851898139494850E+00
   Mo   1.679505426281880E+00   4.510350957734680E+00   2.940159839275920E+00
   Mo   1.349365619448180E+00   4.403525021211560E-01   6.808478769479900E+00
   Mo  -2.221656051427940E-01   3.380605526421630E+00   6.301418782130840E+00
   Mo   4.713123671721770E+00   4.840129270053830E-01   6.414997983624590E+00
   Mo   3.184049242379660E+00   3.374238794244240E+00   6.062881732371020E+00
    S   1.478262369424050E+00   3.825339935939370E-01   3.200890567223690E+00
    S   5.285493187545530E-02   3.397851184718410E+00   3.452726085528100E+00
    S   4.915681044727250E+00   6.680478096600380E-01   3.517431618685480E+00
    S   3.197009030732240E+00   3.284880006885970E+00   3.382955825647590E+00
    S  -4.125706369512150E-01   1.143185787553440E+00   7.694333452715940E+00
    S  -1.988257692307060E+00   4.220237536137860E+00   7.682782164992890E+00
    S   2.913767499512160E+00   1.306252191683680E+00   7.648364376442140E+00
    S   1.146267067471510E+00   4.272412854037140E+00   7.588865285099630E+00
    S   1.655240153366400E+00   1.211585431007280E+00   8.448140764062650E-01
    S  -3.284880786000760E-02   3.839293037067800E+00   9.683325407609080E-01
    S   5.001226314837570E+00   1.220765561057910E+00   1.026081826744850E+00
    S   3.482890284679180E+00   3.891850917233710E+00   9.317094479613510E-01
    S  -1.219883670459030E-01   1.716454024172230E+00   5.274734931175660E+00
    S  -1.656184102618430E+00   4.424521032507130E+00   5.185232276344620E+00
    S   3.354080812137950E+00   1.601344650467440E+00   5.222913412928660E+00
    S   1.786675138593250E+00   4.454769258619290E+00   5.134623268887540E+00
