 &control

     calculation = 'scf',

     restart_mode='from_scratch',

     tprnfor=.true.

     prefix='MoS2',

     outdir='./tmp',

     max_seconds = 84500

     disk_io = 'none'

     pseudo_dir = '~/pseudo/',

 /

 &system

    ibrav = 0,

    nat =  24
    ntyp = 2

    ecutwfc = 45 , ecutrho = 360,

    occupations='smearing', smearing='mv', degauss=0.02

/

  &electrons

     diagonalization='david',

     mixing_mode  =  'local-TF',

     mixing_beta = 0.7

   /

   &ions

     ion_dynamics = 'bfgs'

  /

   &cell

     cell_dynamics = 'bfgs',

   /

 ATOMIC_SPECIES

 Mo  95.5     Mo.pw91-n-van.UPF

 S   32.065   S.pw91-van_ak.UPF

K_POINTS {automatic}
  3  6  1 0 0 0
  
CELL_PARAMETERS (angstrom)
   6.380632000000000E+00   0.000000000000000E+00   0.000000000000000E+00
  -1.595158000000000E+00   2.762894000000000E+00   0.000000000000000E+00
   0.000000000000000E+00   0.000000000000000E+00   2.975800800000000E+01
  
ATOMIC_POSITIONS (angstrom)
   Mo  -2.556243952619340E-02   2.020436202362590E+00   3.633250885891710E+00
   Mo   1.542845928703800E-01   1.795277669292260E+00   1.848035183916400E+01
   Mo   3.014397386397240E+00   1.751267286620500E+00   3.690881831092410E+00
   Mo   3.139219061760970E+00   1.953130679768450E+00   1.844056608986210E+01
   Mo   1.592079010700550E+00   9.218188023572160E-01   1.135922744556120E+01
   Mo   1.713608475845730E+00   8.976628301241030E-01   2.587879876096210E+01
   Mo   4.594183085790830E+00   9.131392496904950E-01   1.110140878575020E+01
   Mo   4.725148256835080E+00   9.832831768854430E-01   2.621847048658700E+01
    S   1.721668425002400E+00   7.663190926080720E-01   5.293610178162550E+00
    S   1.582280373431520E+00   7.989192465501110E-01   2.000571765864270E+01
    S   4.666530697765210E+00   7.602073768788780E-01   5.287717779228850E+00
    S   4.690567984603150E+00   1.037124256913630E+00   2.029592421501140E+01
    S  -9.010171305609380E-02   1.739446977511650E+00   1.287035346271110E+01
    S  -2.519311341393960E-02   2.040333639347400E+00   2.760435964782080E+01
    S   3.228647073898540E+00   1.810666409171790E+00   1.253035094180790E+01
    S   3.184907785012820E+00   1.834717226309780E+00   2.780293811514120E+01
    S   1.601832215465240E+00   8.753074354370930E-01   1.960261963598390E+00
    S   1.611131378269870E+00   9.308709473991250E-01   1.723298554861360E+01
    S   4.943103397178090E+00   9.788194634278120E-01   2.046210331338820E+00
    S   4.932145269416980E+00   9.973130822390160E-01   1.714638190146470E+01
    S   1.650376911901580E-02   1.835584929188840E+00   9.395151892543231E+00
    S  -1.812635820496500E-01   1.924930448363000E+00   2.445740203866060E+01
    S   3.247938156028670E+00   1.989388075751860E+00   9.472156955501680E+00
    S   3.002994304400980E+00   1.863059489801570E+00   2.440655395793700E+01
