 &control

     calculation = 'scf',

     restart_mode='from_scratch',

     tprnfor=.true.

     prefix='MoS2',

     outdir='./tmp',

     max_seconds = 84500

     disk_io = 'none'

     pseudo_dir = '~/pseudo/',

 /

 &system

    ibrav = 0,

    nat =  24
    ntyp = 2

    ecutwfc = 45 , ecutrho = 360,

    occupations='smearing', smearing='mv', degauss=0.02

/

  &electrons

     diagonalization='david',

     mixing_mode  =  'local-TF',

     mixing_beta = 0.7

   /

   &ions

     ion_dynamics = 'bfgs'

  /

   &cell

     cell_dynamics = 'bfgs',

   /

 ATOMIC_SPECIES

 Mo  95.5     Mo.pw91-n-van.UPF

 S   32.065   S.pw91-van_ak.UPF

K_POINTS {automatic}
  3  3  1 0 0 0
  
CELL_PARAMETERS (angstrom)
   6.545481900000000E+00   0.000000000000000E+00   0.000000000000000E+00
  -3.272740950000000E+00   5.668553400000000E+00   0.000000000000000E+00
   0.000000000000000E+00   0.000000000000000E+00   1.433233720000000E+01
  
ATOMIC_POSITIONS (angstrom)
   Mo   6.901617170186230E-03  -4.974496800885600E-02   1.083572720738800E+01
   Mo  -1.645367745833430E+00   2.823428957239650E+00   1.084825479692400E+01
   Mo   3.230888633070600E+00   6.892111522101860E-02   1.080839901943600E+01
   Mo   1.684602503045220E+00   2.800015734716240E+00   1.066863120485240E+01
   Mo   5.235781525422390E-02  -3.782079744826520E-02   3.506741347069280E+00
   Mo  -1.712416774205160E+00   2.897625586287760E+00   3.597362919796720E+00
   Mo   3.339144993085620E+00   2.509052978131800E-02   3.512650157872930E+00
   Mo   1.560745679626400E+00   2.884540137145930E+00   3.541197819950010E+00
    S   1.636402184412920E+00   9.728530537468020E-01   1.245057586453440E+01
    S   5.423087206527910E-02   3.751938777042500E+00   1.243413354729140E+01
    S   4.995212995741150E+00   9.340670247877600E-01   1.240432795036500E+01
    S   3.210296377029740E+00   3.795683920899530E+00   1.227829328532190E+01
    S   1.558752936876140E-02   1.909944317249720E+00   1.881091036906580E+00
    S  -1.574851374484830E+00   4.646113967245870E+00   1.991179247620730E+00
    S   3.363229113623970E+00   1.848494095414740E+00   1.989072600866220E+00
    S   1.686471622522500E+00   4.783613099647160E+00   2.040276001821630E+00
    S   4.864829255829610E-02   1.821637785949860E+00   5.243438328668340E+00
    S  -1.540994739721040E+00   4.742353123503160E+00   5.212073363991550E+00
    S   3.209473732172220E+00   1.851174176252870E+00   5.121150881962730E+00
    S   1.628629799598340E+00   4.720063931470920E+00   5.288065289209380E+00
    S   1.597215162456110E+00   9.794883647080910E-01   9.229110898042400E+00
    S  -9.024908503600690E-02   3.748087014321130E+00   9.173852949016750E+00
    S   4.837767837855140E+00   9.820475683120670E-01   9.203226200404870E+00
    S   3.350709364466390E+00   3.832078487626320E+00   9.177181766349570E+00
