 &control

     calculation = 'vc-relax',

     restart_mode='from_scratch',

     tprnfor=.true.

     prefix='MoS2',

     outdir='./tmp',

     max_seconds = 84500

     disk_io = 'none'

     nstep= 15

     pseudo_dir = '~/pseudo/',

 /

 &system

    ibrav = 0,

    nat =  27
    ntyp = 2

    ecutwfc = 45 , ecutrho = 360,

    occupations='smearing', smearing='mv', degauss=0.02

/

  &electrons

     diagonalization='david',

     mixing_mode  =  'local-TF',

     mixing_beta = 0.7

   /

   &ions

     ion_dynamics = 'bfgs'

  /

   &cell

     cell_dynamics = 'bfgs',

   /

 ATOMIC_SPECIES

 Mo  95.5     Mo.pw91-n-van.UPF

 S   32.065   S.pw91-van_ak.UPF

K_POINTS {automatic}
  3  2  2 0 0 0
  
CELL_PARAMETERS (angstrom)
   5.950281251514480E+00   0.000000000000000E+00   0.000000000000000E+00
   2.220343231701810E-01   8.941760610138219E+00   0.000000000000000E+00
  -7.308604175228710E-01   2.879761812066650E+00   1.010586602420370E+01
  
