 &control

     calculation = 'scf',

     restart_mode='from_scratch',

     tprnfor=.true.

     prefix='MoS2',

     outdir='./tmp',

     max_seconds = 84500

     disk_io = 'none'

     pseudo_dir = '~/pseudo/',

 /

 &system

    ibrav = 0,

    nat =  36
    ntyp = 2

    ecutwfc = 45 , ecutrho = 360,

    occupations='smearing', smearing='mv', degauss=0.02

/

  &electrons

     diagonalization='david',

     mixing_mode  =  'local-TF',

     mixing_beta = 0.7

   /

   &ions

     ion_dynamics = 'bfgs'

  /

   &cell

     cell_dynamics = 'bfgs',

   /

 ATOMIC_SPECIES

 Mo  95.5     Mo.pw91-n-van.UPF

 S   32.065   S.pw91-van_ak.UPF

K_POINTS {automatic}
  3  6  1 0 0 0
  
CELL_PARAMETERS (angstrom)
   6.897867430903611E+00   0.000000000000000E+00   0.000000000000000E+00
  -1.850381088010368E+00   2.965761734539965E+00   0.000000000000000E+00
  -6.284412836601035E+00  -2.165165279376863E+01   3.084663693284437E+01
  
ATOMIC_POSITIONS (angstrom)
   Mo   2.033233737056950E+00  -1.284291243210170E+00   5.123098680357300E+00
   Mo  -2.986396901377600E+00  -1.344937617606650E+01   2.035531283737980E+01
   Mo   5.491861414995520E+00  -1.340823094483910E+00   5.435491764101610E+00
   Mo   3.759837712823040E-01  -1.355019862506290E+01   2.116130579887180E+01
   Mo  -1.513437140365140E+00  -5.910594332714030E+00   1.002291815850900E+01
   Mo  -5.574571845222570E+00  -1.572180941144770E+01   2.561173613134250E+01
   Mo   1.947400145120680E+00  -5.918334484267110E+00   9.888842762219090E+00
   Mo  -2.189990360131170E+00  -1.564374618287130E+01   2.584957627320010E+01
   Mo  -2.437108830128710E+00  -1.127334071352380E+01   1.528233263817600E+01
   Mo  -7.253908552862000E+00  -2.194951277204650E+01   3.115755861298260E+01
   Mo   8.735629198105230E-01  -1.127188462379400E+01   1.546822688282100E+01
   Mo  -3.580346287185950E+00  -2.187406972906210E+01   3.053312919507400E+01
    S  -1.243824931950150E+00   1.621212527328220E+00   1.033110197035560E+00
    S  -4.204633838113360E+00  -1.029299570593440E+01   1.661387414748720E+01
    S   2.552898368248340E+00   1.471344773311830E+00   1.096136317704000E+00
    S  -9.212181681756240E-01  -1.048027529281710E+01   1.628182701601250E+01
    S   1.048797006747480E-01  -2.513897156867920E+00   4.376325907970900E+00
    S  -4.752073426551460E+00  -1.276985517108050E+01   1.969169455173160E+01
    S   3.458473451035820E+00  -2.311842904888040E+00   4.084740298654110E+00
    S  -8.743433681963930E-01  -1.406605459267060E+01   1.968704335214640E+01
    S  -1.379384961448350E+00  -3.440225469535850E+00   6.212044720424460E+00
    S  -4.572236705242360E+00  -1.442289468347170E+01   2.159889131753750E+01
    S   2.164660057117650E+00  -3.179230303814050E+00   6.187703010911500E+00
    S   1.957732480943210E-01  -1.584502217095810E+01   2.179189178769880E+01
    S  -1.776631114166630E+00  -7.768998491556370E+00   9.139651053524229E+00
    S  -2.717713878357310E+00  -1.715845703744870E+01   2.459627691067780E+01
    S   1.595558891776420E+00  -7.823686003098400E+00   9.048297658114780E+00
    S   1.055712749338990E+00  -1.743267170426780E+01   2.461193370458100E+01
    S   1.631589483108510E-01  -6.428835786669460E+00   1.102538583892880E+01
    S  -4.002452688434730E+00  -1.599940663926150E+01   2.671496191482540E+01
    S   3.529573296709130E+00  -6.431518410671740E+00   1.103753536697970E+01
    S  -5.348708835419510E-01  -1.640415944811860E+01   2.673685026697660E+01
    S  -2.810418940219130E+00  -9.170538936741290E+00   1.431138210649010E+01
    S  -7.679774698795940E+00  -1.786344939527000E+01   3.003702534716090E+01
    S   8.659673495343370E-01  -9.492041200989959E+00   1.460971685702660E+01
    S  -3.489194322777710E+00  -1.926692588538220E+01   2.958326626670340E+01
