 &control

     calculation = 'relax',

     restart_mode='from_scratch',

     tprnfor=.true.

     prefix='MoS2',

     outdir='./tmp',

     max_seconds = 84500

     disk_io = 'none'

     pseudo_dir = '~/pseudo/',

     nstep= 4

 /

 &system

    ibrav = 0,

    nat =  24
    ntyp = 2

    ecutwfc = 45 , ecutrho = 360,

    occupations='smearing', smearing='mv', degauss=0.02

/

  &electrons

     diagonalization='david',

     mixing_mode  =  'local-TF',

     mixing_beta = 0.7

   /

   &ions

     ion_dynamics = 'bfgs'

  /

   &cell

     cell_dynamics = 'bfgs',

   /

 ATOMIC_SPECIES

 Mo  95.5     Mo.pw91-n-van.UPF

 S   32.065   S.pw91-van_ak.UPF

K_POINTS {automatic}
  3  3  1 0 0 0
  
CELL_PARAMETERS (angstrom)
   6.441690874357870E+00   0.000000000000000E+00   0.000000000000000E+00
   3.195519695845870E+00   5.563522246290440E+00   0.000000000000000E+00
   1.342837809461140E+00   2.106149940865570E+00   1.847618183281360E+01
  
ATOMIC_POSITIONS (angstrom)
   Mo   6.445097003791860E+00   1.060114368975220E+00   3.680347818919650E+00
   Mo   3.152733228169480E+00   9.232726946385660E-01   3.554310560175600E+00
   Mo   4.797751332527580E+00   3.837653581136330E+00   3.556437728573540E+00
   Mo   8.119643915422159E+00   3.834332287398070E+00   3.658691276112460E+00
   Mo   4.420316545354600E+00   6.756292876400290E+00   1.492770301992350E+01
   Mo   7.753710592624710E+00   6.518380428039240E+00   1.505626198965870E+01
   Mo   6.221335166445160E+00   3.767769101263940E+00   1.493744303641910E+01
   Mo   2.979865476862060E+00   3.935873225099070E+00   1.474465024195570E+01
    S   6.489030102631670E+00   2.922357036873460E+00   2.077929327502650E+00
    S   3.192416059490440E+00   2.833217740107680E+00   2.028021385203360E+00
    S   1.487371865851510E+00   1.153539093222860E-01   1.964484678786230E+00
    S   4.877057825293260E+00   1.027560572179230E-01   2.046220880132960E+00
    S   6.105794737790350E+00   7.686701156775440E+00   1.643059671838650E+01
    S   9.309669470989400E+00   7.546662292658280E+00   1.663325017528340E+01
    S   7.871739220774510E+00   4.602281129440230E+00   1.654120947206370E+01
    S   4.565044920307660E+00   4.811174920577910E+00   1.639913169283880E+01
    S   2.991866411151870E+00   1.932005406027970E+00   1.340820481077420E+01
    S   5.993931881614910E+00   1.959459894984270E+00   1.334276794570490E+01
    S   7.703446037762680E+00   4.814894551806540E+00   1.330676712080370E+01
    S   4.704612527011300E+00   4.914416999421000E+00   1.334982352030470E+01
    S   6.433470268585540E+00   2.968692168062600E+00   5.173233802325680E+00
    S   3.289643885435390E+00   2.770092146400450E+00   5.143911782018630E+00
    S   4.791900498417670E+00   5.610955666433500E+00   5.209884510807370E+00
    S   8.000702560258100E+00   5.693598703273140E+00   5.198257639502090E+00
