 &control

     calculation = 'scf',

     restart_mode='from_scratch',

     tprnfor=.true.

     prefix='MoS2',

     outdir='./tmp',

     max_seconds = 84500

     disk_io = 'none'

     nstep= 12

     pseudo_dir = '~/pseudo/',

 /

 &system

    ibrav = 0,

    nat =  36
    ntyp = 2

    ecutwfc = 45 , ecutrho = 360,

    occupations='smearing', smearing='mv', degauss=0.02

/

  &electrons

     diagonalization='david',

     mixing_mode  =  'local-TF',

     mixing_beta = 0.7

   /

   &ions

     ion_dynamics = 'bfgs'

  /

   &cell

     cell_dynamics = 'bfgs',

   /

 ATOMIC_SPECIES

 Mo  95.5     Mo.pw91-n-van.UPF

 S   32.065   S.pw91-van_ak.UPF

K_POINTS {automatic}
  3  2  2 0 0 0
  
CELL_PARAMETERS (angstrom)
   6.840978100418060E+00   0.000000000000000E+00   0.000000000000000E+00
   1.517849651790600E+00   1.001275825494390E+01   0.000000000000000E+00
   5.275853481088990E-01   3.544775627289280E+00   1.101453350298060E+01
  
ATOMIC_POSITIONS (angstrom)
   Mo   4.574344502709640E+00   5.334622039718040E+00   3.412703545882920E+00
   Mo   2.843610398235940E+00   6.443316111003590E-01   2.746747056497190E-01
   Mo   3.494820457575820E+00   1.009181250538890E+01   1.017961679709180E+01
   Mo   4.562050568108380E+00   5.815478904314240E+00   9.138729309602370E+00
   Mo   6.076454942570160E+00   6.998563709714280E+00   5.383026339352620E+00
   Mo   6.111263233477890E+00   3.894305944664940E+00   5.389805342043270E+00
   Mo   6.513282526939910E+00   1.026945786560810E+01   1.037076761579260E+01
   Mo   7.446357129566040E+00   5.536940690020950E+00   3.351153020892760E+00
   Mo   1.324417705904500E+00   1.770764191029060E+00   2.582446559559140E+00
   Mo   7.910138822333240E+00   7.675370489414890E+00   1.495011014588710E+00
   Mo   2.688818030226200E+00   3.490980140108420E+00   4.871467728253270E-01
   Mo   6.204051749946950E+00   9.924926273163740E+00   4.557780880746870E+00
    S   4.401012035521320E+00   8.791440407445471E+00   5.556332034531730E+00
    S   7.787534114686380E+00   8.735811848218651E+00   5.810246623785300E+00
    S   4.371866625723220E+00   5.481633357747570E+00   7.708421324916780E-01
    S   2.791894553991930E+00   8.658029105229319E+00   2.078577800288480E-01
    S   5.822635073190980E+00   7.305344163220910E+00   2.875451741739990E+00
    S   6.246859421463570E+00   8.890102572361229E+00   8.049479066865370E-02
    S   3.183317949419190E+00   7.734107569171100E+00   9.197271664462770E+00
    S   2.971955071990800E+00   4.133431926275170E+00   8.812297709925129E+00
    S   4.626972745076060E+00   1.936753909088820E+00   5.639070801167920E+00
    S   4.302783391904960E+00   5.397670655123950E+00   5.761502489374280E+00
    S   4.664799548746930E+00   2.198043458549530E+00   3.294647131874130E-01
    S   6.089937938329410E+00   3.521570279153120E+00   2.989348878377410E+00
    S   5.061068542673720E+00   1.058151275477800E+01   8.608253335375140E+00
    S   6.310098634139280E+00   6.937448588034840E+00   7.945178084790370E+00
    S   7.898175805824420E+00   9.966169518861170E+00   2.735384167387520E+00
    S   6.107627209031090E+00   4.001183785751050E+00   8.052117612780270E+00
    S   8.496675156473670E-01   1.992506731683370E+00   2.588618500570320E-01
    S   7.576935443671880E+00   5.374012689161570E+00   7.639104136892080E-01
    S   1.087197595565480E+00   5.407600390260070E+00   5.704365197005630E+00
    S   9.874562579621340E-01   1.987944670456700E+00   5.041899118704360E+00
    S   2.611092183034170E+00   6.945700266804110E+00   3.189175668973820E+00
    S   2.572167011088650E+00   3.849635419296460E+00   2.936611251936620E+00
    S   8.344320446350769E+00   1.047584600187640E+01   8.823425696919379E+00
    S   4.646151697290710E+00   1.032005078668290E+01   2.667699016900950E+00
