 &control

     calculation = 'scf',

     restart_mode='from_scratch',

     tprnfor=.true.

     prefix='MoS2',

     outdir='./tmp',

     max_seconds = 84500

     disk_io = 'none'

     pseudo_dir = '~/pseudo/',

 /

 &system

    ibrav = 0,

    nat =  27
    ntyp = 2

    ecutwfc = 45 , ecutrho = 360,

    occupations='smearing', smearing='mv', degauss=0.02

/

  &electrons

     diagonalization='david',

     mixing_mode  =  'local-TF',

     mixing_beta = 0.7

   /

   &ions

     ion_dynamics = 'bfgs'

  /

   &cell

     cell_dynamics = 'bfgs',

   /

 ATOMIC_SPECIES

 Mo  95.5     Mo.pw91-n-van.UPF

 S   32.065   S.pw91-van_ak.UPF

K_POINTS {automatic}
  3  2  2 0 0 0
  
CELL_PARAMETERS (angstrom)
   4.950268881496385E+00   0.000000000000000E+00   0.000000000000000E+00
   5.108064529527300E-02   8.468398905793741E+00   0.000000000000000E+00
   8.181878399215071E-03   1.236461606745271E+00   9.279220420590857E+00
  
ATOMIC_POSITIONS (angstrom)
   Mo   4.820857443095120E+00   5.559687487212090E+00   3.914694444362850E+00
   Mo   4.778260596718230E+00   4.997083491094750E+00   6.604323225217960E-01
   Mo   4.745499304039090E+00   2.375771429261180E+00   2.824117061776790E+00
   Mo   4.762477242205550E+00   9.066810988072850E+00   8.375364529728520E+00
   Mo   4.744055206345660E+00   3.219809702817950E+00   6.211713624099320E+00
   Mo   4.720139052162650E+00   8.504301784259400E+00   5.121107972650500E+00
   Mo   2.273713803833500E+00   3.415950975086780E+00   9.157477781677770E+00
   Mo   2.308259715318860E+00   6.172048535930960E+00   6.967322404456180E+00
   Mo   2.282330039589840E+00   7.891919822629300E+00   2.068538200658590E+00
    S   3.781054883965610E+00   1.888857274626030E+00   4.686560070353860E+00
    S   1.012549272756780E+00   6.735106514345420E+00   5.329637332296280E+00
    S   3.324592568145550E+00   5.304322292803470E+00   8.756274062075240E+00
    S   7.067617105228080E-01   1.230558145817730E+00   6.549224814890730E+00
    S   3.645795913933130E+00   4.979622206699580E+00   5.734172970830250E+00
    S   3.578158723239320E+00   7.328896897649820E+00   3.706147073529720E+00
    S   3.652942886164770E+00   6.903600650151440E+00   6.413571605219340E-01
    S   1.238242830336310E+00   4.205123417415700E+00   7.392417902318860E+00
    S   8.603279690134280E-01   3.173985032083280E+00   1.117398238597640E+00
    S   1.023638576620130E+00   6.182924813302090E+00   2.213880392323610E+00
    S   8.936938565029739E-01   6.160294246533380E-01   3.301658772025920E+00
    S   9.375532650211860E-01   7.160304218932810E+00   8.394456955219081E+00
    S   3.832704436986900E+00   4.365061972170680E+00   2.486645605398790E+00
    S   3.566975867173770E+00   7.881009256003150E+00   6.821916480808540E+00
    S   1.214783997659270E+00   2.911430287344830E-01   2.795737534144820E-01
    S   7.583475569166510E-01   3.706664589143550E+00   4.349298063416990E+00
    S   3.678983356297700E+00   2.421479602012170E+00   7.918391816630840E+00
    S   3.301123193495460E+00   1.390436687624020E+00   1.643367114550480E+00
