 &control

     calculation = 'scf',

     restart_mode='from_scratch',

     tprnfor=.true.

     prefix='MoS2',

     outdir='./tmp',

     max_seconds = 84500

     disk_io = 'none'

     pseudo_dir = '~/pseudo/',

 /

 &system

    ibrav = 0,

    nat =  24
    ntyp = 2

    ecutwfc = 45 , ecutrho = 360,

    occupations='smearing', smearing='mv', degauss=0.02

/

  &electrons

     diagonalization='david',

     mixing_mode  =  'local-TF',

     mixing_beta = 0.7

   /

   &ions

     ion_dynamics = 'bfgs'

  /

   &cell

     cell_dynamics = 'bfgs',

   /

 ATOMIC_SPECIES

 Mo  95.5     Mo.pw91-n-van.UPF

 S   32.065   S.pw91-van_ak.UPF

K_POINTS {automatic}
  3  5  1 0 0 0
  
CELL_PARAMETERS (angstrom)
   6.789479085958859E+00   0.000000000000000E+00   0.000000000000000E+00
  -1.694134924882982E+00   2.941860826441195E+00   0.000000000000000E+00
  -1.673746617662410E+00  -9.826081399831895E-01   2.445611896881372E+01
  
ATOMIC_POSITIONS (angstrom)
   Mo   3.472705931643710E-01   8.212333144444220E-01   9.087492870952740E+00
   Mo  -1.680964851715050E+00   1.074144036947980E-01   2.190781542542090E+01
   Mo   3.750614898386210E+00   7.263936472983930E-01   8.809894052039240E+00
   Mo   1.665098244174590E+00   1.800057804150130E-01   2.154990667969180E+01
   Mo  -3.154459561896870E-01  -1.220542496542550E+00   3.251520525820760E+00
   Mo  -1.584315170526100E+00  -1.722377359117460E+00   1.538777213277010E+01
   Mo   3.049067182509100E+00  -1.209638417710790E+00   2.825620339718450E+00
   Mo   1.796650811944740E+00  -1.786478318998340E+00   1.498964783589230E+01
    S   2.085525744207460E+00   1.843040969325770E+00   9.995023172334610E+00
    S  -1.565421184127420E-01   1.194546140882540E+00   2.270834135889210E+01
    S   5.544900860517980E+00   1.794975509163080E+00   1.006942106444050E+01
    S   3.178810551347400E+00   1.142792679967310E+00   2.280829177463440E+01
    S  -3.382830787235750E-01   7.406060606824560E-01   2.054662721166330E+00
    S  -1.561007188331070E+00   3.131549025020070E-01   1.414037659804550E+01
    S   3.048374871619200E+00   7.311232524495220E-01   1.962238085637860E+00
    S   1.850478499957700E+00   2.665698656641700E-01   1.415026140148140E+01
    S  -3.558161521281910E-01   2.684289639177060E+00   4.066606832856310E+00
    S  -1.580221091236080E+00   2.284639475077520E+00   1.619307586743030E+01
    S   3.020488449804240E+00   2.700942013707210E+00   4.113331024976160E+00
    S   1.874833919686360E+00   2.268370228456680E+00   1.628083835050500E+01
    S   2.041767059794410E+00  -1.645364779371220E-01   7.906206624712250E+00
    S  -2.396853787023700E-01  -8.293304218504490E-01   2.070908771304270E+01
    S   5.480409495959280E+00  -1.123110623535520E-01   7.928516032102910E+00
    S   3.190737800990170E+00  -8.377375100834630E-01   2.059228515414710E+01
