 &control

     calculation = 'scf',

     restart_mode='from_scratch',

     tprnfor=.true.

     prefix='MoS2',

     outdir='./tmp',

     max_seconds = 84500

     disk_io = 'none'

     pseudo_dir = '~/pseudo/',

 /

 &system

    ibrav = 0,

    nat =  24
    ntyp = 2

    ecutwfc = 45 , ecutrho = 360,

    occupations='smearing', smearing='mv', degauss=0.02

/

  &electrons

     diagonalization='david',

     mixing_mode  =  'local-TF',

     mixing_beta = 0.7

   /

   &ions

     ion_dynamics = 'bfgs'

  /

   &cell

     cell_dynamics = 'bfgs',

   /

 ATOMIC_SPECIES

 Mo  95.5     Mo.pw91-n-van.UPF

 S   32.065   S.pw91-van_ak.UPF

K_POINTS {automatic}
  3  3  1 0 0 0
  
CELL_PARAMETERS (angstrom)
   6.540145750000000E+00   0.000000000000000E+00   0.000000000000000E+00
  -3.270073900000000E+00   5.663932700000000E+00   0.000000000000000E+00
   0.000000000000000E+00   0.000000000000000E+00   2.550097910000000E+01
  
ATOMIC_POSITIONS (angstrom)
   Mo   1.644737993172710E+00   1.042483262405760E+00   3.798450946656990E+00
   Mo  -1.396170752445860E-02   3.792265341357440E+00   3.715085633642580E+00
   Mo   4.864877363935250E+00   8.527817149098530E-01   3.820672692323740E+00
   Mo   3.332184958508850E+00   3.811690331742170E+00   3.882503911968100E+00
   Mo  -6.516656276186519E-02   1.921979275164590E+00   2.162042066135060E+01
   Mo  -1.578309445981950E+00   4.793351692022220E+00   2.165090007453480E+01
   Mo   3.205146562125130E+00   1.946217483787780E+00   2.173714454751290E+01
   Mo   1.607906520434010E+00   4.742233508920430E+00   2.159459174896940E+01
    S   5.845492883275960E-02   1.811001780995980E+00   5.391125682706870E+00
    S  -1.619704440453820E+00   4.707073123351490E+00   5.318789610755050E+00
    S   3.249257326680930E+00   1.905903413315160E+00   5.320611487344730E+00
    S   1.708130370462390E+00   4.788157660732350E+00   5.418746633510890E+00
    S   1.641891007359500E+00   9.034730959061480E-01   2.320106937146200E+01
    S  -2.415940379143780E-02   3.739823567784960E+00   2.338229758386310E+01
    S   4.946771508880640E+00   9.747420500826010E-01   2.320668870234390E+01
    S   3.224719301123560E+00   3.689209385941570E+00   2.331268982888790E+01
    S  -5.967944483259330E-03   1.820801344902570E+00   2.134906611414040E+00
    S  -1.619739665151650E+00   4.636696860489290E+00   2.155490483931070E+00
    S   3.267969916930350E+00   1.963857072448120E+00   2.273841955361500E+00
    S   1.557039665251070E+00   4.777672175168620E+00   2.232917183212060E+00
    S   1.622973562872630E+00   9.044207442335210E-01   1.999317074725820E+01
    S  -3.759306556707910E-02   3.685804246624280E+00   2.006277403000020E+01
    S   4.980875961128590E+00   9.386282329261690E-01   2.014925958223500E+01
    S   3.343010331790760E+00   3.759428483263020E+00   2.001782762634220E+01
