 &control

     calculation = 'scf',

     restart_mode='from_scratch',

     tprnfor=.true.

     prefix='MoS2',

     outdir='./tmp',

     max_seconds = 84500

     disk_io = 'none'

     pseudo_dir = '~/pseudo/',

     nstep= 80

 /

 &system

    ibrav = 0,

    nat =  36
    ntyp = 2

    ecutwfc = 45 , ecutrho = 360,

    occupations='smearing', smearing='mv', degauss=0.02

/

  &electrons

     diagonalization='david',

     mixing_mode  =  'local-TF',

     mixing_beta = 0.7

   /

   &ions

     ion_dynamics = 'bfgs'

  /

   &cell

     cell_dynamics = 'bfgs',

   /

 ATOMIC_SPECIES

 Mo  95.5     Mo.pw91-n-van.UPF

 S   32.065   S.pw91-van_ak.UPF

K_POINTS {automatic}
  3  3  1 0 0 0
  
CELL_PARAMETERS (angstrom)
   6.289992320008280E+00   0.000000000000000E+00   0.000000000000000E+00
   3.147863621606640E+00   5.445488084232050E+00   0.000000000000000E+00
   3.122856398803480E+00   1.986575764485610E+00   2.739400463907610E+01
  
ATOMIC_POSITIONS (angstrom)
   Mo   9.225687787063761E+00   6.496693508289820E+00   2.677121434797530E+01
   Mo   7.651755145486960E+00   3.773949993914130E+00   2.677121681664500E+01
   Mo   6.080691396937550E+00   6.496693447991740E+00   2.677121595418110E+01
   Mo   4.506759673569000E+00   3.773949704482560E+00   2.677121658167780E+01
   Mo   1.937338652260420E+00   2.290290898581110E+00   6.366350237832040E+00
   Mo   3.511270471843110E+00   5.013034714434990E+00   6.366350037896750E+00
   Mo   5.082334748316760E+00   2.290290597403020E+00   6.366351354816770E+00
   Mo   6.656266649427470E+00   5.013034895321430E+00   6.366350027747140E+00
   Mo   6.092658661708540E+00   6.513162975821620E+00   2.165062454133240E+01
   Mo   4.518726917507660E+00   3.790419484383230E+00   2.165062150542140E+01
   Mo   9.237654774794860E+00   6.513162420892020E+00   2.165061542096030E+01
   Mo   7.663723373923170E+00   3.790419426246230E+00   2.165062269333890E+01
    S   7.652724144121200E+00   5.588887728496380E+00   2.538210608699040E+01
    S   6.078793312804040E+00   2.866145305550660E+00   2.538210639253620E+01
    S   1.079772244127500E+01   5.588887510622290E+00   2.538210600610290E+01
    S   9.223788756822680E+00   2.866144403293670E+00   2.538211378509890E+01
    S   3.509505120018580E+00   3.197071546514430E+00   4.763120240311980E+00
    S   1.935572664977850E+00   4.743280120323840E-01   4.763121202707230E+00
    S   6.654500146496950E+00   3.197071559793430E+00   4.763121836906980E+00
    S   5.080569110219560E+00   4.743283970020480E-01   4.763121759468690E+00
    S   4.517954522557960E+00   1.975716647024610E+00   2.015649115007860E+01
    S   6.091891065508880E+00   4.698460905713270E+00   2.015649230206290E+01
    S   7.662958491160350E+00   1.975717229960810E+00   2.015649160701430E+01
    S   9.236886061733360E+00   4.698455876011570E+00   2.015648912804930E+01
    S   4.530651094045470E+00   5.417614001243630E+00   7.065948954887170E-01
    S   2.956718010342420E+00   2.694871467733090E+00   7.065955752632960E-01
    S   7.675645872641510E+00   5.417614316719180E+00   7.065951750216440E-01
    S   6.101714479118880E+00   2.694871721548400E+00   7.065955845847350E-01
    S   3.510206378416880E+00   3.197666099569050E+00   7.950090588317810E+00
    S   1.936274929552260E+00   4.749217925307270E-01   7.950090274845800E+00
    S   6.655203302482430E+00   3.197666188229320E+00   7.950090876572950E+00
    S   5.081271201780260E+00   4.749209557847150E-01   7.950091087509630E+00
    S   4.517259130924010E+00   1.974877795718730E+00   2.320512526675500E+01
    S   6.091186499250830E+00   4.697622048175040E+00   2.320512491244520E+01
    S   7.662246845144460E+00   1.974877280868590E+00   2.320512550804330E+01
    S   9.236183593230750E+00   4.697626688034880E+00   2.320512481062400E+01
