 &control

     calculation = 'relax',

     restart_mode='from_scratch',

     tprnfor=.true.

     prefix='MoS2',

     outdir='./tmp',

     max_seconds = 84500

     disk_io = 'none'

     pseudo_dir = '~/pseudo/',

     nstep= 4

 /

 &system

    ibrav = 0,

    nat =  24
    ntyp = 2

    ecutwfc = 45 , ecutrho = 360,

    occupations='smearing', smearing='mv', degauss=0.02

/

  &electrons

     diagonalization='david',

     mixing_mode  =  'local-TF',

     mixing_beta = 0.7

   /

   &ions

     ion_dynamics = 'bfgs'

  /

   &cell

     cell_dynamics = 'bfgs',

   /

 ATOMIC_SPECIES

 Mo  95.5     Mo.pw91-n-van.UPF

 S   32.065   S.pw91-van_ak.UPF

K_POINTS {automatic}
  5  3  1 0 0 0
  
CELL_PARAMETERS (angstrom)
   3.228536225357780E+00   0.000000000000000E+00   0.000000000000000E+00
  -7.426072391849478E-03   5.588194583709340E+00   0.000000000000000E+00
  -2.706468098788620E-01  -2.021822783918840E+00   3.135656844207280E+01
  
ATOMIC_POSITIONS (angstrom)
   Mo   1.327476929358880E+00   3.117335237768730E+00   4.054282337852430E+00
   Mo   6.184490982160520E-01   3.446058041584150E+00   2.082806131356910E+01
   Mo   2.844941687107550E+00   3.533810794439260E-01   4.061677456153120E+00
   Mo   2.307640349083650E+00   6.583832450929880E-01   2.086438853115220E+01
   Mo   3.835324897985750E-01   4.346458106736420E+00   1.045853581614990E+01
   Mo   3.835557242948820E-01   1.830114859917300E+00   2.739988462462080E+01
   Mo   2.024041916791240E+00   1.532179823971710E+00   1.042027397281810E+01
   Mo   1.905280146203170E+00  -9.242676463552451E-01   2.737679282838320E+01
    S   2.950269442947900E+00   2.206112366804720E+00   5.643843040414030E+00
    S   2.212907595954020E+00   2.536879195048620E+00   2.241921821245330E+01
    S   1.250029780528040E+00  -5.953143934220000E-01   5.626408334228610E+00
    S   6.957614712249180E-01  -2.929918500895520E-01   2.243109836862350E+01
    S   1.999510656094390E+00   5.291379118394150E+00   1.202336199313320E+01
    S   2.008514552439300E+00   2.784293171994160E+00   2.893725698310680E+01
    S   4.016875176105880E-01   2.464211666849140E+00   1.198869183866980E+01
    S   3.011553112564870E-01  -4.203318050821830E-02   2.897867760096480E+01
    S   2.924992651255730E+00   2.203039589045900E+00   2.475766205050380E+00
    S   2.247380184002040E+00   2.505253290302140E+00   1.926946009284080E+01
    S   1.210964642749700E+00   4.999974526432950E+00   2.503104902485630E+00
    S   6.824448638768310E-01  -2.541809560068290E-01   1.928716132633590E+01
    S   1.996016096966410E+00   5.232351913048330E+00   8.856071287437690E+00
    S   1.976256700803300E+00   2.780880487913190E+00   2.582553666405530E+01
    S   4.177417398093010E-01   2.483066700729390E+00   8.861569298452070E+00
    S   2.930444532282640E-01   9.939458649383440E-04   2.579486817782420E+01
