 &control

     calculation = 'relax',

     restart_mode='from_scratch',

     tprnfor=.true.

     prefix='MoS2',

     outdir='./tmp',

     max_seconds = 84500

     disk_io = 'none'

     pseudo_dir = '~/pseudo/',

     nstep= 4

 /

 &system

    ibrav = 0,

    nat =  36
    ntyp = 2

    ecutwfc = 45 , ecutrho = 360,

    occupations='smearing', smearing='mv', degauss=0.02

/

  &electrons

     diagonalization='david',

     mixing_mode  =  'local-TF',

     mixing_beta = 0.7

   /

   &ions

     ion_dynamics = 'bfgs'

  /

   &cell

     cell_dynamics = 'bfgs',

   /

 ATOMIC_SPECIES

 Mo  95.5     Mo.pw91-n-van.UPF

 S   32.065   S.pw91-van_ak.UPF

K_POINTS {automatic}
  3  3  1 0 0 0
  
CELL_PARAMETERS (angstrom)
   6.447309399572720E+00   0.000000000000000E+00   0.000000000000000E+00
  -3.246413808943680E+00   5.608339819845590E+00   0.000000000000000E+00
   4.473604896909090E+00  -1.602775691282780E+00   2.375794263100450E+01
  
ATOMIC_POSITIONS (angstrom)
   Mo   2.253936814106500E+00   1.620591230540790E+00   1.467396423095440E+01
   Mo   3.915680901396400E+00   4.461652639387640E+00   1.470132529611510E+01
   Mo   5.521150232124260E+00   1.673213938895590E+00   1.468345255164330E+01
   Mo   7.044873234960820E-01   4.549258075185650E+00   1.460438650760800E+01
   Mo   5.450676019438490E+00   1.741209896579230E+00   7.927415631471080E+00
   Mo   5.046132200038820E-01   4.530503249927210E+00   7.926538734219140E+00
   Mo   2.039050248674130E+00   1.848323335571320E+00   7.941903560165370E+00
   Mo   3.708466453428770E+00   4.618093560934920E+00   7.915264505746380E+00
   Mo  -1.518437535305250E+00   3.389954509491270E+00   1.222706008234130E+00
   Mo   3.222283412845310E+00   5.974368328770699E-01   1.142588598865750E+00
   Mo   1.556932658793610E+00   3.329901712012540E+00   1.193522468324640E+00
   Mo   9.099955705176220E-02   6.263719400464740E-01   1.144461994052300E+00
    S   6.135370749620630E+00  -2.003549790939360E+00   2.334168323939890E+01
    S   7.743198878015770E+00   9.154959588833710E-01   2.341837331207100E+01
    S   9.372895178467489E+00  -1.988742277197540E+00   2.342106323091600E+01
    S   4.485214638388030E+00   8.473868169769710E-01   2.329646238524970E+01
    S   3.904099023379970E+00   7.526317626572850E-01   1.624833773517870E+01
    S   5.612393621086780E+00   3.577081013180360E+00   1.621693751371700E+01
    S   7.103580827289560E+00   7.123528283168979E-01   1.627701012042960E+01
    S   2.254935814682600E+00   3.524347875345720E+00   1.619739742668290E+01
    S   3.898259466231800E+00   8.063302348045280E-01   1.305628568945620E+01
    S   5.505310330080350E+00   3.528468058760180E+00   1.309848936111090E+01
    S   7.091953618692630E+00   6.813509075460340E-01   1.306722642185970E+01
    S   2.313553624451570E+00   3.499246838149570E+00   1.310451338984960E+01
    S   3.725290629419620E+00   8.531757351831750E-01   9.394449537692010E+00
    S  -1.137385065234350E+00   3.615836493238760E+00   9.474574330628380E+00
    S   5.491660710624020E-01   8.198833169644610E-01   9.583731565652799E+00
    S   2.116221870419020E+00   3.690207865377400E+00   9.539206033845320E+00
    S   3.717878770866960E+00   8.641597719460180E-01   6.451409168209190E+00
    S  -1.114023381524330E+00   3.610762956539170E+00   6.357160828449210E+00
    S   5.483880165384170E-01   8.314185250234400E-01   6.273579573118780E+00
    S   2.117343359283510E+00   3.663307558006550E+00   6.309718793940560E+00
    S   1.644939281466420E+00  -3.249823143341340E-01   2.777621576835320E+00
    S   3.231681853282440E+00   2.454322624627590E+00   2.734475985941260E+00
    S   4.871051338175760E+00  -3.383519358271530E-01   2.675477219614880E+00
    S   1.302586280357140E-02   2.401085469090790E+00   2.859698454191690E+00
