 &control

     calculation = 'relax',

     restart_mode='from_scratch',

     tprnfor=.true.

     prefix='MoS2',

     outdir='./tmp',

     max_seconds = 84500

     disk_io = 'none'

     pseudo_dir = '~/pseudo/',

     nstep= 4

 /

 &system

    ibrav = 0,

    nat =  24
    ntyp = 2

    ecutwfc = 45 , ecutrho = 360,

    occupations='smearing', smearing='mv', degauss=0.02

/

  &electrons

     diagonalization='david',

     mixing_mode  =  'local-TF',

     mixing_beta = 0.7

   /

   &ions

     ion_dynamics = 'bfgs'

  /

   &cell

     cell_dynamics = 'bfgs',

   /

 ATOMIC_SPECIES

 Mo  95.5     Mo.pw91-n-van.UPF

 S   32.065   S.pw91-van_ak.UPF

K_POINTS {automatic}
  5  3  1 0 0 0
  
CELL_PARAMETERS (angstrom)
   3.234359744355350E+00   0.000000000000000E+00   0.000000000000000E+00
  -1.811566998228496E-02   5.595005405270340E+00   0.000000000000000E+00
  -2.212020530099340E+00  -2.401135523982760E-01   3.047348055496210E+01
  
ATOMIC_POSITIONS (angstrom)
   Mo   1.216005317014110E+00   3.472372936029020E+00   4.157877622170340E+00
   Mo  -1.033399916716120E+00   5.088569353712720E+00   1.960832199278180E+01
   Mo   2.903096580218830E+00   6.557076160846340E-01   4.171297952788580E+00
   Mo   5.478099325822590E-01   2.288811356378780E+00   1.955689653933500E+01
   Mo  -2.886278312445150E-01   4.481300772359600E+00   1.085887174864110E+01
   Mo  -1.171972093059510E+00   3.329716129934800E+00   2.631352747675490E+01
   Mo   1.324137437935190E+00   1.695755756025820E+00   1.091147866041870E+01
   Mo   5.085311360262920E-01   5.040471398676630E-01   2.635110947221020E+01
    S   2.844729769025500E+00   2.527341816238080E+00   5.740910422101090E+00
    S   5.688769769921250E-01   4.120734852017450E+00   2.118339947349730E+01
    S   1.312838749423950E+00  -2.801334992408430E-01   5.763225578856380E+00
    S  -1.063651211278440E+00   1.375660219490770E+00   2.116154416383990E+01
    S   1.316370289385330E+00   5.404508074641830E+00   1.244451340754240E+01
    S   4.607542982280380E-01   4.208707855342490E+00   2.790646518152810E+01
    S  -3.167549151810190E-01   2.660837608469620E+00   1.247537986218730E+01
    S  -1.095150912160850E+00   1.440806382472690E+00   2.791049905872440E+01
    S   2.818171955382130E+00   2.528033706840090E+00   2.595134079236730E+00
    S   6.074042409095159E-01   4.187111695728160E+00   1.801709684491980E+01
    S   1.257134840769850E+00   5.344700442598220E+00   2.583127610130990E+00
    S  -1.076545238244090E+00   1.340534448951140E+00   1.799659969565880E+01
    S   1.337635730403580E+00   5.431198142612360E+00   9.290349509234639E+00
    S   4.119045616539660E-01   4.291283401255790E+00   2.471547389842760E+01
    S  -2.781981437685550E-01   2.584829853548610E+00   9.302775574927869E+00
    S  -1.118461811391730E+00   1.456308967573720E+00   2.477114683004190E+01
