 &control

     calculation = 'scf',

     restart_mode='from_scratch',

     tprnfor=.true.

     prefix='MoS2',

     outdir='./tmp',

     max_seconds = 84500

     disk_io = 'none'

     nstep= 12

     pseudo_dir = '~/pseudo/',

 /

 &system

    ibrav = 0,

    nat =  48
    ntyp = 2

    ecutwfc = 45 , ecutrho = 360,

    occupations='smearing', smearing='mv', degauss=0.02

/

  &electrons

     diagonalization='david',

     mixing_mode  =  'local-TF',

     mixing_beta = 0.7

   /

   &ions

     ion_dynamics = 'bfgs'

  /

   &cell

     cell_dynamics = 'bfgs',

   /

 ATOMIC_SPECIES

 Mo  95.5     Mo.pw91-n-van.UPF

 S   32.065   S.pw91-van_ak.UPF

K_POINTS {automatic}
  2  2  2 0 0 0
  
CELL_PARAMETERS (angstrom)
   9.668432983765021E+00   0.000000000000000E+00   0.000000000000000E+00
  -4.270979381400510E-01   9.686241636596090E+00   0.000000000000000E+00
  -2.146772145402280E-01  -5.072721479978970E-01   9.487888706340341E+00
  
ATOMIC_POSITIONS (angstrom)
   Mo   3.313889304519680E+00   3.274248071521860E+00   8.032963208649051E+00
   Mo   1.063076933599980E+00   3.321693378645550E+00   5.657535980292500E+00
   Mo   1.399334808182500E+00   1.152866276753560E+00   8.758117962630530E+00
   Mo   3.720515360839750E+00   7.420153181219900E-01   5.736750826336600E+00
   Mo   3.302847840445680E+00   8.317414896768611E+00   3.654711561548150E+00
   Mo   1.110944580683190E+00   8.131112549975480E+00   1.487463486194980E+00
   Mo   9.987589387862140E-01   6.003377847901800E+00   3.360410782142080E+00
   Mo   2.973694087946020E+00   6.032800601141150E+00   1.384307662497170E+00
   Mo   8.071259707237610E+00   8.170599861813640E+00   8.412591968242451E+00
   Mo   5.306242514514860E+00   8.401826911511529E+00   5.660339619394090E+00
   Mo   5.337618514378970E+00   5.435762861153830E+00   8.114696596275150E+00
   Mo   7.710499984183420E+00   6.077088005901620E+00   6.260267833132050E+00
   Mo   8.163022873759610E+00   3.277264366113680E+00   3.286808808609310E+00
   Mo   5.401039667553270E+00   2.994745553213250E+00   6.664462640357099E-01
   Mo   5.778660832522000E+00   7.302197616034170E-01   3.714067030471980E+00
   Mo   8.527537695766750E+00   1.244679847223530E+00   1.310215260521950E+00
    S   8.327416267231810E-01   3.387449663423840E+00   8.090714088436020E+00
    S   7.749453732726010E+00   5.734330616666230E+00   8.533627546746860E+00
    S   3.479896898345240E+00   3.207600480835840E+00   5.693397903915540E+00
    S   2.972411532201140E+00   8.091410002688811E+00   6.096861332731340E+00
    S   7.975754144377680E-01   8.355425514104970E+00   8.570661437741110E+00
    S   5.343627890579370E-01   5.720709902790810E+00   5.842346603295390E+00
    S   2.966385748491120E+00   5.610433530954870E+00   8.389164664605760E+00
    S   5.441764284146950E+00   5.907410247470120E+00   5.778051914308500E+00
    S   8.233152013688740E-01   8.347907326261289E+00   3.842236923000990E+00
    S   8.289485031683640E+00   9.618573274851090E-01   3.761668704875120E+00
    S   3.463901402150370E+00   8.343691354059240E+00   1.148357785863700E+00
    S   3.053168541057180E+00   3.551787288804180E+00   1.041758159903740E+00
    S   9.101043010010860E-01   3.507725864638270E+00   3.214543038690490E+00
    S   1.235269236973840E+00   8.955870433681890E-01   1.544327581827880E+00
    S   3.419534250442020E+00   1.043767444631750E+00   3.418953627859530E+00
    S   6.166120109138390E+00   7.616114244099300E-01   1.268792239716390E+00
    S   5.590688003370040E+00   7.966374876636680E+00   8.106144475277850E+00
    S   3.811230047154780E+00   8.357950783768990E-01   8.425552163883699E+00
    S   7.767276310949230E+00   8.378164837141480E+00   5.992256547999330E+00
    S   8.219871555660250E+00   3.652410984399860E+00   5.724414134949040E+00
    S   5.873582187978800E+00   3.139053874701020E+00   7.937980054944180E+00
    S   6.031309414377100E+00   1.070154473975060E+00   6.089498749119440E+00
    S   8.645288764410420E+00   9.237828467580080E-01   8.381345768023589E+00
    S   1.280488883063130E+00   9.168807488019710E-01   6.297005011105350E+00
    S   5.713758562478750E+00   3.144755101927590E+00   3.109238225973540E+00
    S   3.336746048808710E+00   5.813045838997200E+00   3.723013015611640E+00
    S   7.773508361133610E+00   3.519554966432370E+00   9.444204835032630E-01
    S   8.293553640288060E+00   8.448708003623519E+00   1.347807343543160E+00
    S   5.728140854891460E+00   8.073227349420639E+00   3.332017372436050E+00
    S   5.427750130204330E+00   5.436534516815150E+00   1.105520344284230E+00
    S   8.211141003714379E+00   5.756587968241490E+00   3.672572161892690E+00
    S   6.177451497635420E-01   5.845445690541030E+00   9.896063249340450E-01
