 &control

     calculation = 'scf',

     restart_mode='from_scratch',

     tprnfor=.true.

     prefix='MoS2',

     outdir='./tmp',

     max_seconds = 84500

     disk_io = 'none'

     nstep= 12

     pseudo_dir = '~/pseudo/',

 /

 &system

    ibrav = 0,

    nat =  48
    ntyp = 2

    ecutwfc = 45 , ecutrho = 360,

    occupations='smearing', smearing='mv', degauss=0.02

/

  &electrons

     diagonalization='david',

     mixing_mode  =  'local-TF',

     mixing_beta = 0.7

   /

   &ions

     ion_dynamics = 'bfgs'

  /

   &cell

     cell_dynamics = 'bfgs',

   /

 ATOMIC_SPECIES

 Mo  95.5     Mo.pw91-n-van.UPF

 S   32.065   S.pw91-van_ak.UPF

K_POINTS {automatic}
  2  2  2 0 0 0
  
CELL_PARAMETERS (angstrom)
   9.990421730050601E+00   0.000000000000000E+00   0.000000000000000E+00
   1.319466755145570E+00   1.058689836904460E+01   0.000000000000000E+00
   8.286428308369570E-01   5.659571519742600E-01   1.044138997451980E+01
  
ATOMIC_POSITIONS (angstrom)
   Mo   4.008488878793990E+00   1.683743305585810E+00   3.735034213548230E+00
   Mo   2.344242925280810E+00   4.115153943185160E+00   3.603868355318430E+00
   Mo   2.165329409378140E+00   2.061118300252290E+00   1.443247015046630E+00
   Mo   4.476100781992740E+00   4.012270528983360E+00   1.826312516203950E+00
   Mo   4.947866756639160E+00   7.269260476577130E+00   8.369361719833019E+00
   Mo   2.680847831089250E+00   9.022364844697581E+00   8.562732716973240E+00
   Mo   2.637052242435300E+00   7.308439303763180E+00   6.357565268885550E+00
   Mo   4.807930473108000E+00   9.199427528327380E+00   6.383617448393670E+00
   Mo   9.672933574840060E+00   2.886570491545540E+00   9.101229443694310E+00
   Mo   7.589953873107830E+00   6.739050025473560E+00   6.547020749146710E+00
   Mo   7.556113780153950E+00   4.810476047396090E+00   8.732431565503161E+00
   Mo   9.476840690869080E+00   4.742119798017540E+00   6.674762837406700E+00
   Mo   9.556917387570101E+00   6.854824340567220E+00   3.895237829000440E+00
   Mo   7.550037651641950E+00   8.933637508897180E+00   3.722405822739680E+00
   Mo   7.268038083747750E+00   6.717747384463100E+00   1.909824518788650E+00
   Mo   9.458729725059140E+00   8.539824601252690E+00   1.651323427137600E+00
    S   1.632888190420610E+00   1.833828205511390E+00   3.759413944239280E+00
    S   1.032586288352430E+01   2.433098507159250E+00   6.940695257174300E+00
    S   4.650429899671150E+00   3.907165131293960E+00   4.121088990622560E+00
    S   6.896709112890690E+00   4.396383479033060E+00   9.815158967499740E-01
    S   1.595375979284240E+00   9.361806518623631E+00   4.685556213013940E-01
    S   3.048196968159850E+00   2.771357287078850E+00   9.336240602869861E+00
    S   3.873996770656810E+00   1.201786199499710E+00   6.190787502208490E+00
    S   7.216602096659750E+00   4.373141460939690E+00   6.510310748784700E+00
    S   2.594069847412650E+00   6.788206298984220E+00   8.601856085522639E+00
    S   9.639885875258040E+00   6.215093170644930E+00   1.563587504299510E+00
    S   4.883587258239860E+00   9.682922433575390E+00   8.810861910712751E+00
    S   5.155624261063270E+00   9.617595233854930E+00   3.955639634338610E+00
    S   2.116317758374780E+00   6.468861719780030E+00   4.109454499085600E+00
    S   3.329746178819250E+00   1.007123418211120E+01   1.448983587923860E+00
    S   5.181881168335070E+00   5.089813385557660E+00   9.477167897720619E+00
    S   7.194086535095250E+00   9.049256272010471E+00   1.298386813255450E+00
    S   7.466188312394760E+00   2.404956947304380E+00   9.075152204537449E+00
    S   4.571685175064240E+00   1.585037737145300E+00   1.302200794443770E+00
    S   9.954516465144509E+00   5.214924820792900E+00   8.986428636188720E+00
    S   9.983318755990551E+00   4.391176670603920E+00   4.278154996471510E+00
    S   6.398028093210000E+00   8.891096860017600E-01   4.014711131744320E+00
    S   4.829019869624820E+00   6.513237350592850E+00   1.661737035544510E+00
    S   9.822070655956241E+00   1.830278436952400E+00   7.451930853377930E-01
    S   2.187391452566680E+00   4.466033137717540E+00   1.311682319925980E+00
    S   7.112881685635960E+00   6.563286285166520E+00   4.108209673620330E+00
    S   4.932391997728490E+00   6.862735047424160E+00   6.116911033905350E+00
    S   9.937728876501639E+00   9.204357205593320E+00   3.784843955450020E+00
    S   1.021784252843860E+01   9.069336783156620E+00   9.429262377294039E+00
    S   7.362045766873220E+00   7.283160310168470E+00   9.048656894581990E+00
    S   7.254325169735500E+00   9.207546910807650E+00   6.281304704568590E+00
    S   9.965792682903171E+00   6.976655381932230E+00   6.370058467740760E+00
    S   2.393803309737810E+00   9.667735043460601E+00   6.251466535154330E+00
