 &control

     calculation = 'scf',

     restart_mode='from_scratch',

     tprnfor=.true.

     prefix='MoS2',

     outdir='./tmp',

     max_seconds = 84500

     disk_io = 'none'

     pseudo_dir = '~/pseudo/',

 /

 &system

    ibrav = 0,

    nat =  24
    ntyp = 2

    ecutwfc = 45 , ecutrho = 360,

    occupations='smearing', smearing='mv', degauss=0.02

/

  &electrons

     diagonalization='david',

     mixing_mode  =  'local-TF',

     mixing_beta = 0.7

   /

   &ions

     ion_dynamics = 'bfgs'

  /

   &cell

     cell_dynamics = 'bfgs',

   /

 ATOMIC_SPECIES

 Mo  95.5     Mo.pw91-n-van.UPF

 S   32.065   S.pw91-van_ak.UPF

K_POINTS {automatic}
  3  3  1 0 0 0
  
CELL_PARAMETERS (angstrom)
   6.332631175320527E+00   0.000000000000000E+00   0.000000000000000E+00
  -3.189276399965022E+00   5.468484758941482E+00   0.000000000000000E+00
  -1.115192469757687E-01  -2.972872081000821E-01   2.489251849824179E+01
  
ATOMIC_POSITIONS (angstrom)
   Mo   1.626697766875200E+00   8.659196982352170E-01   3.765860759008900E+00
   Mo  -1.081209767792200E-02   3.604317954535410E+00   3.622361040983980E+00
   Mo   4.782372439125740E+00   8.704413727235630E-01   3.662588345454860E+00
   Mo   3.158984515912740E+00   3.607181931663740E+00   3.915367824796700E+00
   Mo  -1.400807061051680E-01   1.578513853325870E+00   2.123328908746870E+01
   Mo  -1.732425446763710E+00   4.306169654838490E+00   2.116472433213730E+01
   Mo   3.023294582436630E+00   1.573961090879180E+00   2.111292396546440E+01
   Mo   1.439267775718670E+00   4.315827596570770E+00   2.109356643645600E+01
    S   2.960379502632560E-02   1.604968814589960E+00   4.865873108228080E+00
    S  -1.569887838785420E+00   4.458478346952740E+00   4.950593351270860E+00
    S   3.199726085991820E+00   1.728130840711610E+00   4.963165846375640E+00
    S   1.507132209526130E+00   4.400744844961420E+00   4.910936260622480E+00
    S   1.410715206297540E+00   6.019114016478020E-01   2.234935021622390E+01
    S  -1.740856502084160E-01   3.346747780730250E+00   2.235101358511430E+01
    S   4.544434409490150E+00   6.494218097573150E-01   2.232097825472530E+01
    S   2.946557733994020E+00   3.381128327600140E+00   2.230309026975910E+01
    S   4.822614828981600E-02   1.893055735855600E+00   2.511726225908520E+00
    S  -1.647018353665270E+00   4.553909105577970E+00   2.586736305912310E+00
    S   3.216747622597070E+00   1.839369849754970E+00   2.599558313075780E+00
    S   1.571069767189070E+00   4.599622384120030E+00   2.550320572279670E+00
    S   1.450802868759150E+00   7.332381260864130E-01   1.998677588501310E+01
    S  -1.126195770770910E-01   3.456299210725450E+00   1.998725847491500E+01
    S   4.670586633886280E+00   6.572273079444930E-01   1.995842613871690E+01
    S   3.122779733582400E+00   3.390240621030910E+00   1.994312957673530E+01
