 &control

     calculation = 'scf',

     restart_mode='from_scratch',

     tprnfor=.true.

     prefix='MoS2',

     outdir='./tmp',

     max_seconds = 84500

     disk_io = 'none'

     nstep= 12

     pseudo_dir = '~/pseudo/',

 /

 &system

    ibrav = 0,

    nat =  42
    ntyp = 2

    ecutwfc = 45 , ecutrho = 360,

    occupations='smearing', smearing='mv', degauss=0.02

/

  &electrons

     diagonalization='david',

     mixing_mode  =  'local-TF',

     mixing_beta = 0.7

   /

   &ions

     ion_dynamics = 'bfgs'

  /

   &cell

     cell_dynamics = 'bfgs',

   /

 ATOMIC_SPECIES

 Mo  95.5     Mo.pw91-n-van.UPF

 S   32.065   S.pw91-van_ak.UPF

K_POINTS {automatic}
  2  2  2 0 0 0
  
CELL_PARAMETERS (angstrom)
   9.510414689108829E+00   0.000000000000000E+00   0.000000000000000E+00
  -3.284231471758110E+00   9.557504525283161E+00   0.000000000000000E+00
  -6.169860772635970E-01  -3.467589935312160E+00   1.329309529838040E+01
  
ATOMIC_POSITIONS (angstrom)
   Mo   2.865555798782530E+00   7.867285457068480E+00   8.037030933214320E-01
   Mo   2.004371156688340E+00   5.253543971055870E+00   2.661007666408350E+00
   Mo   7.387854158331399E-01   5.976357660051400E+00   2.986824344209930E-01
   Mo   8.018774846077770E-01   7.812040999358740E+00   2.747883293069550E+00
   Mo   7.448371018495030E+00  -5.428679666958550E-01   1.125209592380060E+01
   Mo  -4.254769262217970E-01   1.860050376937540E+00   4.023795517142660E-01
   Mo   5.237981659654810E+00   6.371542229316810E+00   1.108096026662480E+01
   Mo   5.923894884643910E+00  -2.666852387334880E+00   1.260173472231060E+01
   Mo   2.906930236860080E+00   1.050357683316680E+00   6.637266582647540E+00
   Mo   9.116358111903480E-02   8.774650316660169E+00   1.051042370126450E-01
   Mo   4.000686094385330E+00   3.641764292335920E+00   6.181577517073520E+00
   Mo   5.829503602385750E+00   4.729959506311960E+00   8.143745525008081E+00
   Mo   6.880069418205240E+00   2.870980184770550E+00   1.030827136777200E+01
   Mo   4.903656974368900E+00   2.008955615001840E+00   8.543993398243289E+00
    S   3.130282771051310E+00   5.435864658480960E+00   5.568674501101830E-01
    S   3.169453956177490E+00   7.337672421208590E+00   3.158994941930920E+00
    S   6.820647585858520E+00   5.352306611361550E-01   9.148534600352230E+00
    S   3.598125677573910E-01   5.954867002068950E+00   4.313519444313250E+00
    S   1.629986384342320E+00   2.984351589933890E+00   6.265060880382840E+00
    S   7.717773196193450E+00   1.752646153291600E-01   1.427708930923310E+00
    S   1.911527965144370E+00  -1.018833511631870E+00   5.896011774990030E+00
    S   1.787744294541170E-01  -1.169460648094920E+00   1.167847583935410E+01
    S   6.336677142733340E+00  -4.112356709504720E-01   1.326000745057950E+01
    S   9.030326343921140E-01   4.055993551887990E+00   1.188220576316330E+01
    S   3.485640190383100E+00   3.800236937615530E+00   3.821559716976270E+00
    S   2.879615297164410E+00  -1.809924933702160E-01   4.208406047225470E+00
    S  -1.095053717885340E+00   1.742760898494820E+00   1.166075004218420E+01
    S   4.800070149417720E+00   3.829483030476760E-01   1.692674055020670E+00
    S  -1.053213441818450E+00   7.011658803969220E+00   1.426759992101690E+00
    S   3.807712225085640E+00   4.724622815469490E+00   1.223274126256600E+01
    S   3.581414023387680E+00   4.073195781988200E+00   8.545004318867919E+00
    S  -2.351853751988890E+00   4.869327422924290E+00   1.172245451691450E+01
    S   5.090801835200390E+00   1.606947144606710E+00   6.171557050131170E+00
    S   2.906637467346480E-01   3.879833176889170E+00   1.541508768883860E+00
    S  -1.864960382492030E+00   3.281930236306110E+00   8.127620511506519E+00
    S   6.412231617540020E+00  -2.478657341572420E+00   1.022590779502420E+01
    S  -3.283864654769400E+00   6.888116925628520E+00   8.937069787035560E+00
    S   4.793005446662380E+00   2.201892043151130E+00   1.108178392328830E+01
    S   3.010234557939230E+00   6.686742317787360E-01   8.888248840262140E+00
    S   3.596693508360660E+00  -2.300497127325750E+00   1.203612230883040E+01
    S   5.793521651297460E+00   5.101828031521180E+00   5.851143860638480E+00
    S   1.571773273369120E+00   7.094344043055379E-01   1.183550800895990E+00
