 &control

     calculation = 'scf',

     restart_mode='from_scratch',

     tprnfor=.true.

     prefix='MoS2',

     outdir='./tmp',

     max_seconds = 84500

     disk_io = 'none'

     pseudo_dir = '~/pseudo/',

 /

 &system

    ibrav = 0,

    nat =  24
    ntyp = 2

    ecutwfc = 45 , ecutrho = 360,

    occupations='smearing', smearing='mv', degauss=0.02

/

  &electrons

     diagonalization='david',

     mixing_mode  =  'local-TF',

     mixing_beta = 0.7

   /

   &ions

     ion_dynamics = 'bfgs'

  /

   &cell

     cell_dynamics = 'bfgs',

   /

 ATOMIC_SPECIES

 Mo  95.5     Mo.pw91-n-van.UPF

 S   32.065   S.pw91-van_ak.UPF

K_POINTS {automatic}
  3  3  1 0 0 0
  
CELL_PARAMETERS (angstrom)
   7.113622543617356E+00   0.000000000000000E+00   0.000000000000000E+00
  -3.977468179916137E+00   5.879511231273884E+00   0.000000000000000E+00
  -2.645835360062302E+00   1.301034341407566E+00   2.067935897115094E+01
  
ATOMIC_POSITIONS (angstrom)
   Mo   1.871406358852670E+00   9.645805209568570E-01   3.145998190449350E+00
   Mo  -2.587930038948500E-01   3.849943452908360E+00   2.989948765224350E+00
   Mo   5.351841216811110E+00   9.283008782440080E-01   3.031240954279900E+00
   Mo   3.344884074445120E+00   3.916092947487520E+00   3.097886995211990E+00
   Mo  -2.856895125020000E+00   3.318477814963420E+00   1.764730841849430E+01
   Mo  -4.860790979264860E+00   6.248493636221060E+00   1.757710368446230E+01
   Mo   6.707282738447010E-01   3.305970064059370E+00   1.760236341888590E+01
   Mo  -1.274807683613050E+00   6.264082649072730E+00   1.761804790456820E+01
    S  -1.612214721484580E+00   2.700195530901070E+00   4.116738301473110E+00
    S  -3.627664859700190E+00   5.704878253119580E+00   4.135160283217920E+00
    S   1.971025322325870E+00   2.727676234496650E+00   4.173282046735000E+00
    S  -1.602710013404700E-01   5.702835530495190E+00   4.058809677896780E+00
    S  -1.238187233367650E+00   2.423319394973470E+00   1.863845786546050E+01
    S  -3.225186764099470E+00   5.377782307709130E+00   1.860263836330890E+01
    S   2.310539908794020E+00   2.403855434235630E+00   1.859209727816310E+01
    S   3.336015032161530E-01   5.368175595451440E+00   1.860084511512680E+01
    S   1.886027655436790E-01   1.829636457235980E+00   2.080342848777180E+00
    S  -1.894596885784170E+00   4.688045116644640E+00   2.051636269876310E+00
    S   3.709956999076970E+00   1.802278564264430E+00   2.060314107015870E+00
    S   1.700406581425280E+00   4.750908203560850E+00   2.087474213413460E+00
    S   5.129465945447260E-01   1.517790862881230E+00   1.653206704760130E+01
    S  -1.419871000018460E+00   4.419448841906730E+00   1.658354584241430E+01
    S   4.158333778187930E+00   1.479709975884010E+00   1.657030630838330E+01
    S   2.162536762283000E+00   4.400308954751240E+00   1.656623131626050E+01
