 &control

     calculation = 'scf',

     restart_mode='from_scratch',

     tprnfor=.true.

     prefix='MoS2',

     outdir='./tmp',

     max_seconds = 84500

     disk_io = 'none'

     pseudo_dir = '~/pseudo/',

 /

 &system

    ibrav = 0,

    nat =  24
    ntyp = 2

    ecutwfc = 45 , ecutrho = 360,

    occupations='smearing', smearing='mv', degauss=0.02

/

  &electrons

     diagonalization='david',

     mixing_mode  =  'local-TF',

     mixing_beta = 0.7

   /

   &ions

     ion_dynamics = 'bfgs'

  /

   &cell

     cell_dynamics = 'bfgs',

   /

 ATOMIC_SPECIES

 Mo  95.5     Mo.pw91-n-van.UPF

 S   32.065   S.pw91-van_ak.UPF

K_POINTS {automatic}
  3  3  1 0 0 0
  
CELL_PARAMETERS (angstrom)
   6.380630000000000E+00   0.000000000000000E+00   0.000000000000000E+00
  -3.190316000000000E+00   5.525788000000000E+00   0.000000000000000E+00
   0.000000000000000E+00   0.000000000000000E+00   2.487900400000000E+01
  
ATOMIC_POSITIONS (angstrom)
   Mo   1.582901236067950E+00   8.543342047656260E-01   3.793313827791560E+00
   Mo  -2.241560635205000E-02   3.686801582289750E+00   3.817170044089700E+00
   Mo   4.804566829966930E+00   9.045851101226680E-01   3.816543707586010E+00
   Mo   3.166638522965240E+00   3.702923269174480E+00   3.624491957977660E+00
   Mo   1.086417728283730E-02   1.788054784550350E+00   2.107570202293610E+01
   Mo  -1.599550691615710E+00   4.621022161172880E+00   2.106066290894250E+01
   Mo   3.193982858476980E+00   1.877645097749790E+00   2.106591195095400E+01
   Mo   1.512463435201040E+00   4.653449007821330E+00   2.113100054118010E+01
    S   7.097354714431160E-02   1.904352857481300E+00   5.252000624466580E+00
    S  -1.610767960785340E+00   4.586984220859310E+00   5.381798755835130E+00
    S   3.149391724835940E+00   1.751010618603430E+00   5.276963494981830E+00
    S   1.567567813846490E+00   4.618076241299520E+00   5.189447242773200E+00
    S   1.614212034180440E+00   8.733702237037020E-01   2.280999334322890E+01
    S  -6.103041548007550E-04   3.679190555171320E+00   2.282402310474940E+01
    S   4.794744454666040E+00   9.278580104668160E-01   2.282346433794790E+01
    S   3.207968491632170E+00   3.725313157088340E+00   2.263486001024240E+01
    S  -1.942906684106810E-02   1.830868632656380E+00   2.057400945441600E+00
    S  -1.665741168619530E+00   4.664467418882120E+00   2.193092839642570E+00
    S   3.185492874845250E+00   1.941608395566850E+00   2.148464284952360E+00
    S   1.618079665491210E+00   4.510979941925380E+00   2.129030005512140E+00
    S   1.578960142078910E+00   9.131124123648020E-01   1.949598880757010E+01
    S   1.375217578074140E-04   3.684422096120290E+00   1.969435355858420E+01
    S   4.786797533697470E+00   9.205371937220440E-01   1.949436491419820E+01
    S   3.216678867542320E+00   3.613089126305170E+00   1.952880527902560E+01
