 &control

     calculation = 'scf',

     restart_mode='from_scratch',

     tprnfor=.true.

     prefix='MoS2',

     outdir='./tmp',

     max_seconds = 84500

     disk_io = 'none'

     nstep= 12

     pseudo_dir = '~/pseudo/',

 /

 &system

    ibrav = 0,

    nat =  33
    ntyp = 2

    ecutwfc = 45 , ecutrho = 360,

    occupations='smearing', smearing='mv', degauss=0.02

/

  &electrons

     diagonalization='david',

     mixing_mode  =  'local-TF',

     mixing_beta = 0.7

   /

   &ions

     ion_dynamics = 'bfgs'

  /

   &cell

     cell_dynamics = 'bfgs',

   /

 ATOMIC_SPECIES

 Mo  95.5     Mo.pw91-n-van.UPF

 S   32.065   S.pw91-van_ak.UPF

K_POINTS {automatic}
  2  2  2 0 0 0
  
CELL_PARAMETERS (angstrom)
   1.037399922303150E+01   0.000000000000000E+00   0.000000000000000E+00
  -3.261858781464780E+00   9.750470432900380E+00   0.000000000000000E+00
  -1.741875798378150E+00  -5.862245088857400E+00   9.531225041527200E+00
  
ATOMIC_POSITIONS (angstrom)
   Mo  -1.149425426956070E+00   4.390869852961150E+00   7.997996915900260E+00
   Mo   3.129544279485020E+00  -1.014131755904040E-02   7.529517752857370E+00
   Mo   3.199757592767950E+00   3.743499059963940E+00   1.889303275560740E+00
   Mo   5.695658847112330E+00   9.303574258656010E-01   2.129257246759640E-01
   Mo   5.356081500507210E+00   1.954938189189790E+00   6.965140654577710E+00
   Mo   3.480092083847900E+00   5.334569472912900E+00   4.095030100601850E+00
   Mo   1.460423649476500E+00   3.380843377974730E+00   7.512261213821690E+00
   Mo   3.920132264790140E+00  -3.207471816019560E+00   7.600996754467260E+00
   Mo   1.762054620647160E+00   3.121189823929950E+00   4.581710902015590E+00
   Mo   5.815623767493900E+00  -7.951674630069960E-01   6.944497223263130E+00
   Mo   4.527954066781800E+00   2.607278844212170E+00   4.173741929211460E+00
    S   5.266203953995220E+00  -2.735858487638010E+00   5.539850656234900E+00
    S   1.401705092088040E-01   4.519302797979350E+00   5.948610453957400E+00
    S   1.573777885163270E+00  -4.385166864793380E-01   9.434273884630660E+00
    S   2.176249539381810E+00  -2.021014762588370E+00   6.244455514578470E+00
    S   1.290753849332280E+00   1.445273097260770E+00   6.239873309247850E+00
    S   5.958158153255340E+00   9.274870190560210E-01   2.674765960896530E+00
    S   1.409652371412830E+00   5.008196153092380E+00   2.859905930182840E+00
    S  -3.774321370641610E-01   2.129506331613570E+00   3.339673030661820E+00
    S   6.874758994239960E+00   2.648638237407210E+00   5.120076299779090E+00
    S   3.646086562606290E+00   3.838272529919110E+00   5.901767705814700E+00
    S   4.448445119983580E+00   3.246792662191460E-01   5.454454512701730E+00
    S  -3.362922748834660E+00   7.247720696598590E-01   8.271779723236151E+00
    S   5.271856944122150E+00   4.528338689559820E+00   2.880456260035660E+00
    S   8.378445713921691E+00  -2.618671408358830E+00   4.707816992542900E+00
    S   2.817452766807660E+00   1.705029059344920E+00   2.807432453893590E+00
    S  -1.414337356978050E-01   2.686209625134530E+00   9.328002104453370E+00
    S   5.786418006213020E+00  -4.376349267242030E+00   8.735375861341780E+00
    S   3.546999373780800E+00   2.211291706436130E+00   8.507831689323179E+00
    S   1.990626603400540E+00  -3.488161584754220E+00   9.277021613370630E+00
    S   4.668786963129240E+00  -1.328151020517850E+00   8.812961170046780E+00
    S  -3.591448031743670E+00   3.885268938894450E+00   8.053191350346079E+00
    S   8.071686176546420E+00  -1.226766441674950E+00   6.006561348286660E+00
