 &control

     calculation = 'scf',

     restart_mode='from_scratch',

     tprnfor=.true.

     prefix='MoS2',

     outdir='./tmp',

     max_seconds = 84500

     disk_io = 'none'

     pseudo_dir = '~/pseudo/',

 /

 &system

    ibrav = 0,

    nat =  12
    ntyp = 2

    ecutwfc = 45 , ecutrho = 360,

    occupations='smearing', smearing='mv', degauss=0.02

/

  &electrons

     diagonalization='david',

     mixing_mode  =  'local-TF',

     mixing_beta = 0.7

   /

   &ions

     ion_dynamics = 'bfgs'

  /

   &cell

     cell_dynamics = 'bfgs',

   /

 ATOMIC_SPECIES

 Mo  95.5     Mo.pw91-n-van.UPF

 S   32.065   S.pw91-van_ak.UPF

K_POINTS {automatic}
  3  3  1 0 0 0
  
CELL_PARAMETERS (angstrom)
   6.540145750000000E+00   0.000000000000000E+00   0.000000000000000E+00
  -3.270073900000000E+00   5.663932700000000E+00   0.000000000000000E+00
   0.000000000000000E+00   0.000000000000000E+00   1.787548955000000E+01
  
ATOMIC_POSITIONS (angstrom)
   Mo  -5.538661778884930E-04  -5.717068140184220E-02  -8.204392981998150E-02
   Mo  -1.647386123182510E+00   2.833042698380530E+00   9.922872263549520E-02
   Mo   3.280912447528100E+00   3.976543276521110E-02   9.111099837233430E-02
   Mo   1.578579134291890E+00   2.863908662875140E+00  -7.610728894874380E-02
    S  -1.802377139111440E-02   1.921182449906670E+00   1.696592376531100E+00
    S  -1.601669758232660E+00   4.703712345342120E+00   1.511143296692990E+00
    S   3.288421708643370E+00   1.958429296485490E+00   1.672559496854390E+00
    S   1.663520050750900E+00   4.741103038931430E+00   1.697496066829050E+00
    S   1.405334401538750E-02   1.798349265460550E+00   1.631354615457250E+01
    S  -1.575121823306220E+00   4.780237790657030E+00   1.632416157435370E+01
    S   3.356755354578650E+00   1.937542239573160E+00   1.626607855155390E+01
    S   1.642844951795200E+00   4.736049097948960E+00   1.636987129215480E+01
