 &control

     calculation = 'relax',

     restart_mode='from_scratch',

     tprnfor=.true.

     prefix='MoS2',

     outdir='./tmp',

     max_seconds = 84500

     disk_io = 'none'

     pseudo_dir = '~/pseudo/',

     nstep= 4

 /

 &system

    ibrav = 0,

    nat =  36
    ntyp = 2

    ecutwfc = 45 , ecutrho = 360,

    occupations='smearing', smearing='mv', degauss=0.02

/

  &electrons

     diagonalization='david',

     mixing_mode  =  'local-TF',

     mixing_beta = 0.7

   /

   &ions

     ion_dynamics = 'bfgs'

  /

   &cell

     cell_dynamics = 'bfgs',

   /

 ATOMIC_SPECIES

 Mo  95.5     Mo.pw91-n-van.UPF

 S   32.065   S.pw91-van_ak.UPF

K_POINTS {automatic}
  3  3  1 0 0 0
  
CELL_PARAMETERS (angstrom)
   6.450974253151470E+00   0.000000000000000E+00   0.000000000000000E+00
   3.222859550170870E+00   5.591134542142960E+00   0.000000000000000E+00
   5.689156061498120E-01   2.695391867414850E+00   2.436328750405920E+01
  
ATOMIC_POSITIONS (angstrom)
   Mo   4.324279513227090E+00   3.004158840544100E+00   9.428498191126121E+00
   Mo   7.553318758459890E+00   3.001496433473280E+00   9.422003599437719E+00
   Mo   5.921762394648790E+00   5.802716156619850E+00   9.429101623228760E+00
   Mo   9.153602424551620E+00   5.784635819118000E+00   9.426522472183720E+00
   Mo   6.390362243463690E+00   5.816498179112240E+00   1.621436113325780E+01
   Mo   3.186053672676040E+00   5.822545523833880E+00   1.621412786081470E+01
   Mo   4.802847265195120E+00   3.040598015389570E+00   1.621160501231540E+01
   Mo   1.559728385616830E+00   3.018687321556780E+00   1.621575642834170E+01
   Mo   4.893511945298910E+00   4.959655581510080E+00   2.307644928786150E+01
   Mo   8.128717599015969E+00   4.963847567046610E+00   2.307660510219220E+01
   Mo   6.501947743939910E+00   7.754810914313100E+00   2.307619444071690E+01
   Mo   9.748209123393369E+00   7.744528051476790E+00   2.307382691624300E+01
    S   2.716957156424230E+00   3.191755881441230E+00   2.861839575761040E-01
    S   5.935707773320030E+00   3.193643500607220E+00   2.770285354407580E-01
    S   1.100445988441970E+00   4.057483159025850E-01   2.811971168262240E-01
    S   4.334640401038500E+00   3.893979168979460E-01   2.691348150512150E-01
    S   4.316626781724160E+00   1.135279213696700E+00   7.862601540544830E+00
    S   1.082165565026600E+00   1.134339104890330E+00   7.854398149479360E+00
    S   5.937770106711310E+00   3.940982367149260E+00   7.859795090304800E+00
    S   2.716941608144650E+00   3.923543006029640E+00   7.848521879056220E+00
    S   7.544836168849640E+00   6.728271202830680E+00   1.100857806822420E+01
    S   4.305874224559640E+00   6.733064967521520E+00   1.101231274617100E+01
    S   5.945391967262140E+00   3.938535180206980E+00   1.101059024356100E+01
    S   2.714144505963720E+00   3.925062350665590E+00   1.101756890397910E+01
    S   8.009693012069670E+00   6.756882218620690E+00   1.464954639266570E+01
    S   4.784836626952130E+00   6.751718735704250E+00   1.462483302320100E+01
    S   6.412205672320210E+00   3.961614155452820E+00   1.462554709860400E+01
    S   3.172919398542600E+00   3.954850612512790E+00   1.464053687445370E+01
    S   8.012027173551910E+00   6.758829039600410E+00   1.777784143508550E+01
    S   4.787042054218630E+00   6.751501138765900E+00   1.780618944259800E+01
    S   6.410771490232270E+00   3.959848206428520E+00   1.780465225355290E+01
    S   3.178681836161780E+00   3.954300032424060E+00   1.778958930368520E+01
    S   3.293086147542100E+00   5.887915780674020E+00   2.148144736164330E+01
    S   6.512468306488360E+00   5.891920124986830E+00   2.149429059721760E+01
    S   1.678356971516150E+00   3.104844739185580E+00   2.148712895180600E+01
    S   4.906545112027170E+00   3.089574064209560E+00   2.150007287342740E+01
