 &control

     calculation = 'scf',

     restart_mode='from_scratch',

     tprnfor=.true.

     prefix='MoS2',

     outdir='./tmp',

     max_seconds = 84500

     disk_io = 'none'

     pseudo_dir = '~/pseudo/',

 /

 &system

    ibrav = 0,

    nat =  36
    ntyp = 2

    ecutwfc = 45 , ecutrho = 360,

    occupations='smearing', smearing='mv', degauss=0.02

/

  &electrons

     diagonalization='david',

     mixing_mode  =  'local-TF',

     mixing_beta = 0.7

   /

   &ions

     ion_dynamics = 'bfgs'

  /

   &cell

     cell_dynamics = 'bfgs',

   /

 ATOMIC_SPECIES

 Mo  95.5     Mo.pw91-n-van.UPF

 S   32.065   S.pw91-van_ak.UPF

K_POINTS {automatic}
  3  3  1 0 0 0
  
CELL_PARAMETERS (angstrom)
   6.391768459629830E+00   0.000000000000000E+00   0.000000000000000E+00
  -3.467781860187880E+00   5.546158529734900E+00   0.000000000000000E+00
  -1.375033900961090E+00  -2.564758302051410E+00   3.746222759384490E+01
  
ATOMIC_POSITIONS (angstrom)
   Mo   2.210741983143580E-01   1.869729751223100E+00   9.838749424037340E-01
   Mo   3.592285398699860E+00  -1.819598600618980E+00   3.617147964490970E+01
   Mo  -1.834040913336490E-01   4.729696365749670E+00   5.803915252148260E-01
   Mo   5.217347974175760E-01   8.685167892398110E-01   3.657108316385360E+01
   Mo  -6.153345776427760E-01   3.932290216086370E+00   8.757634448499701E+00
   Mo   2.580249070847180E+00   3.934016736572960E+00   8.761315437111479E+00
   Mo   1.117095042348370E+00   1.160247699333050E+00   8.759621989784490E+00
   Mo   4.315486162285520E+00   1.159985320302570E+00   8.759370895327461E+00
   Mo  -1.813502773839140E+00   1.645948729269650E+00   2.882479279890960E+01
   Mo   1.381216206245410E+00   1.646248109563160E+00   2.882783165439520E+01
   Mo  -7.960469358164460E-02  -1.127494273785770E+00   2.882232228584780E+01
   Mo   3.115456775048260E+00  -1.128072407638720E+00   2.882502724578770E+01
    S   1.090797219209900E+00  -2.578493738834190E+00   3.638794288460020E+01
    S   7.729216401377460E-01   2.467398368089930E+00   3.476979807854230E+01
    S  -1.491259097121830E+00   2.740028418549750E-01   3.658342119287470E+01
    S   2.092529697314120E+00  -6.866946571930660E-02   3.548873281970300E+01
    S  -2.237870346848410E+00   4.861432904162740E+00   7.176217311007520E+00
    S   9.602795449149970E-01   4.861381130410750E+00   7.175673960298320E+00
    S  -5.031534314967140E-01   2.087018784984910E+00   7.169998441473630E+00
    S   2.693091034646810E+00   2.089046452045350E+00   7.179985782682140E+00
    S  -3.435441190829580E+00   2.572403318677390E+00   2.723864123163690E+01
    S  -2.376802843743820E-01   2.573610662482250E+00   2.723892996624850E+01
    S  -1.701380466775510E+00  -1.991139803096690E-01   2.723758669927190E+01
    S   1.496291492145330E+00  -1.971180313410020E-01   2.723888699160130E+01
    S   1.716005121701740E+00   1.021718146353720E-01   1.675442731421430E+00
    S   1.832101656073730E+00   5.323454974653970E+00   5.769626747501569E-01
    S  -4.074662111445260E-01   3.135842769748840E+00   2.389538274401120E+00
    S   2.692959407945360E+00   2.620668743346680E+00   7.709124475950460E-01
    S  -2.232360478438420E+00   4.859647142085830E+00   1.034601524517640E+01
    S   9.606256270532710E-01   4.859421445943810E+00   1.034637284226510E+01
    S  -5.000357274662560E-01   2.087218065083310E+00   1.034640612968790E+01
    S   2.695942723624720E+00   2.085839605817810E+00   1.034617329566340E+01
    S  -3.431856971666550E+00   2.573798565487060E+00   3.040927921477380E+01
    S  -2.394598424653940E-01   2.572632896557840E+00   3.041588301632360E+01
    S  -1.698014732053960E+00  -2.022921613624260E-01   3.040578057524700E+01
    S   1.495419683137790E+00  -2.024540023628210E-01   3.040937998160020E+01
