 &control

     calculation = 'relax',

     restart_mode='from_scratch',

     tprnfor=.true.

     prefix='MoS2',

     outdir='./tmp',

     max_seconds = 84500

     disk_io = 'none'

     pseudo_dir = '~/pseudo/',

     nstep= 4

 /

 &system

    ibrav = 0,

    nat =  15
    ntyp = 2

    ecutwfc = 45 , ecutrho = 360,

    occupations='smearing', smearing='mv', degauss=0.02

/

  &electrons

     diagonalization='david',

     mixing_mode  =  'local-TF',

     mixing_beta = 0.7

   /

   &ions

     ion_dynamics = 'bfgs'

  /

   &cell

     cell_dynamics = 'bfgs',

   /

 ATOMIC_SPECIES

 Mo  95.5     Mo.pw91-n-van.UPF

 S   32.065   S.pw91-van_ak.UPF

K_POINTS {automatic}
  3  3  2 0 0 0
  
CELL_PARAMETERS (angstrom)
   6.136367161253490E+00   0.000000000000000E+00   0.000000000000000E+00
  -1.680324615325530E+00   6.663403699995900E+00   0.000000000000000E+00
  -1.513168277478210E+00  -1.335189760353340E+00   9.160050347871110E+00
  
ATOMIC_POSITIONS (angstrom)
   Mo   1.385225952155030E+00   1.986944722920960E+00   3.360095361899450E-01
   Mo   9.595190770338180E-01   2.977506454210980E+00   5.832885528381560E+00
   Mo  -1.788897850197670E+00   2.719199866071830E+00   8.850631505866669E+00
   Mo   1.836161708516000E-01   6.016222905825790E-01   2.197638610179040E+00
   Mo  -1.329733538479880E+00   4.703386045086570E+00   1.832721706733170E+00
    S   2.997548196825710E+00   3.159460837674550E+00   6.832051376688340E+00
    S  -1.095158173655970E-01   6.283873023029490E+00   7.626395262287931E-01
    S   5.573156165825670E-02   4.402952337065520E+00   4.143915925831360E+00
    S  -2.883283228496380E-01   1.557019691359560E+00   7.284340004868740E+00
    S  -4.527043700686700E-01   2.644817827424750E+00   1.445689350427330E+00
    S   1.459119387128350E+00   1.263577576208280E+00   4.174432442372860E+00
    S   3.959773394888840E+00   1.436982713081480E+00   5.812086307144900E-01
    S   1.119840056943320E-01   4.311090132353210E+00   7.724694434948110E+00
    S   3.178505871929230E+00   5.734774903818840E+00   3.272913380097670E+00
    S   3.357695959656570E+00   3.830833144335630E+00   1.238091966729230E-01
