 &control

     calculation = 'relax',

     restart_mode='from_scratch',

     tprnfor=.true.

     prefix='MoS2',

     outdir='./tmp',

     max_seconds = 84500

     disk_io = 'none'

     pseudo_dir = '~/pseudo/',

     nstep= 4

 /

 &system

    ibrav = 0,

    nat =  15
    ntyp = 2

    ecutwfc = 45 , ecutrho = 360,

    occupations='smearing', smearing='mv', degauss=0.02

/

  &electrons

     diagonalization='david',

     mixing_mode  =  'local-TF',

     mixing_beta = 0.7

   /

   &ions

     ion_dynamics = 'bfgs'

  /

   &cell

     cell_dynamics = 'bfgs',

   /

 ATOMIC_SPECIES

 Mo  95.5     Mo.pw91-n-van.UPF

 S   32.065   S.pw91-van_ak.UPF

K_POINTS {automatic}
  3  3  2 0 0 0
  
CELL_PARAMETERS (angstrom)
   6.285595749646090E+00   0.000000000000000E+00   0.000000000000000E+00
  -2.127702268653680E-01   6.462878510809010E+00   0.000000000000000E+00
  -2.055805218869190E+00  -2.253409302519710E+00   9.450945306060060E+00
  
ATOMIC_POSITIONS (angstrom)
   Mo   2.089482937845120E+00   1.808490825746450E+00   1.114164424928270E+00
   Mo   1.835755595037780E+00   2.313931440397930E+00   5.571010478849250E+00
   Mo  -1.083155526206200E+00   1.633070196440450E+00   9.320161835292510E+00
   Mo   5.799370984115360E-02   7.494049764490160E-01   2.011640025494660E+00
   Mo   5.371760946416510E+00   4.893054145864920E+00   1.155228727381270E+00
    S   3.099991525054830E+00   1.438247534546180E+00   7.872386610659790E+00
    S   1.110280298326510E+00  -2.631990199027340E-01   3.299349921098440E-01
    S   2.690295957070770E-01   3.044992683079210E+00   4.140712499344640E+00
    S   5.963689962173840E-01   9.643351987568280E-01   7.248882959820320E+00
    S   3.717947200081140E-01   3.072099549521050E+00   1.817525127501830E+00
    S   1.902646775658990E+00   1.112754481917200E+00   3.432559307380860E+00
    S   4.035524842118980E+00   4.559025675732680E-01   1.828093739393150E+00
    S   1.320965341319560E+00   3.295635776736220E+00   7.920841390631240E+00
    S  -4.172291676763110E-01   5.409553337745470E+00   3.479819250716330E+00
    S   3.354919011018170E+00   3.645188595467660E+00   1.927215159091700E-01
