 &control

     calculation = 'relax',

     restart_mode='from_scratch',

     tprnfor=.true.

     prefix='MoS2',

     outdir='./tmp',

     max_seconds = 84500

     disk_io = 'none'

     pseudo_dir = '~/pseudo/',

     nstep= 4

 /

 &system

    ibrav = 0,

    nat =  15
    ntyp = 2

    ecutwfc = 45 , ecutrho = 360,

    occupations='smearing', smearing='mv', degauss=0.02

/

  &electrons

     diagonalization='david',

     mixing_mode  =  'local-TF',

     mixing_beta = 0.7

   /

   &ions

     ion_dynamics = 'bfgs'

  /

   &cell

     cell_dynamics = 'bfgs',

   /

 ATOMIC_SPECIES

 Mo  95.5     Mo.pw91-n-van.UPF

 S   32.065   S.pw91-van_ak.UPF

K_POINTS {automatic}
  3  3  2 0 0 0
  
CELL_PARAMETERS (angstrom)
   6.868584993676870E+00   0.000000000000000E+00   0.000000000000000E+00
  -1.487741396562820E+00   5.971418957279290E+00   0.000000000000000E+00
  -9.049168921937550E-01  -2.115083177710900E+00   9.181283555884569E+00
  
ATOMIC_POSITIONS (angstrom)
   Mo   2.873684937002070E+00   2.033469063666670E+00   8.893986572119911E+00
   Mo   1.737740135723670E+00   2.437031836167840E+00   3.321405744770090E+00
   Mo   1.371916920999010E+00   5.208353412379080E+00   3.066506834980730E-01
   Mo   3.925417059653100E+00   3.560697908224640E+00   7.004098682103770E+00
   Mo   1.066958831773310E+00  -1.965632073950030E+00   7.370265193801610E+00
    S   2.011257944571200E+00   4.485291694424590E-01   2.260237595611150E+00
    S  -1.661595404897970E+00   2.429681245015500E+00   8.426310285301771E+00
    S   1.105106703794680E-01   2.777057985942990E+00   5.020957296181300E+00
    S   2.835801352733160E+00   4.076375544104800E+00   1.937798576296240E+00
    S   1.789944015607770E+00   3.637173886405400E+00   7.755340496019570E+00
    S   3.523398739150360E+00   2.274458883500610E+00   4.970131515876620E+00
    S   4.054771424041730E+00  -3.659457109113320E-01   8.606150833247209E+00
    S   2.938583833402730E-01   3.023124836254490E+00   1.435057614790970E+00
    S  -3.385810095930890E-01  -6.083890950816210E-01   5.943569702643440E+00
    S   2.504197660844720E+00   1.763718983167010E+00  -1.123280453664080E-01
