 &control

     calculation = 'scf',

     restart_mode='from_scratch',

     tprnfor=.true.

     prefix='MoS2',

     outdir='./tmp',

     max_seconds = 84500

     disk_io = 'none'

     pseudo_dir = '~/pseudo/',

 /

 &system

    ibrav = 0,

    nat =  24
    ntyp = 2

    ecutwfc = 45 , ecutrho = 360,

    occupations='smearing', smearing='mv', degauss=0.02

/

  &electrons

     diagonalization='david',

     mixing_mode  =  'local-TF',

     mixing_beta = 0.7

   /

   &ions

     ion_dynamics = 'bfgs'

  /

   &cell

     cell_dynamics = 'bfgs',

   /

 ATOMIC_SPECIES

 Mo  95.5     Mo.pw91-n-van.UPF

 S   32.065   S.pw91-van_ak.UPF

K_POINTS {automatic}
  3  5  1 0 0 0
  
CELL_PARAMETERS (angstrom)
   6.785105011435344E+00   0.000000000000000E+00   0.000000000000000E+00
  -1.709052037952612E+00   2.960179972281045E+00   0.000000000000000E+00
  -2.194452208526648E+00   2.959049298184502E+00   2.298582408894876E+01
  
ATOMIC_POSITIONS (angstrom)
   Mo   1.747104018275550E-01   2.193828737928290E+00   8.497130658475969E+00
   Mo  -2.422451170559330E+00   3.406803546722400E+00   2.003111930963600E+01
   Mo   3.579441497126670E+00   2.168301761460430E+00   7.924854586309010E+00
   Mo   1.015844342111770E+00   3.649926793997370E+00   2.076968577817460E+01
   Mo  -4.824029727695550E-01  -5.838622656612080E-01   3.110916130707540E+00
   Mo  -1.881028995389040E+00   7.806930599990430E-01   1.452315098055050E+01
   Mo   2.899146644383960E+00  -5.628895656540820E-01   2.883248668024230E+00
   Mo   1.446052573204410E+00   9.130594971636939E-01   1.405257453628080E+01
    S   1.964941648794090E+00   2.962267018735100E+00   9.274667118573889E+00
    S  -3.677308976549480E-01   4.719943165719040E+00   2.173382805664320E+01
    S   5.444299248894890E+00   3.145942810111330E+00   9.460455545109550E+00
    S   2.995529557121850E+00   4.579978620836120E+00   2.134776322002970E+01
    S  -3.071592394045730E-01   1.290324911942510E+00   1.969795147515560E+00
    S  -2.045595067943400E+00   2.797039879645090E+00   1.331809807107940E+01
    S   3.040945716169160E+00   1.348316946651780E+00   1.971276886627020E+00
    S   1.409013671549660E+00   2.772382289119090E+00   1.317742372792960E+01
    S  -3.698712260529670E-01   3.296865677512300E+00   4.007814530046950E+00
    S  -1.961853933287780E+00   4.818167356741120E+00   1.530680922356680E+01
    S   3.025805921185880E+00   3.348915645939470E+00   4.064273059131220E+00
    S   1.380625365328140E+00   4.738091672593410E+00   1.537655271810640E+01
    S   1.991445406857990E+00   1.140529311755100E+00   7.205484369497240E+00
    S  -5.033537619524890E-01   2.571625855382940E+00   1.937365274376890E+01
    S   5.498397472186590E+00   1.179664046529170E+00   7.297054410583760E+00
    S   2.783543975514680E+00   2.384450208073730E+00   1.930287529865080E+01
