 &control

     calculation = 'scf',

     restart_mode='from_scratch',

     tprnfor=.true.

     prefix='MoS2',

     outdir='./tmp',

     max_seconds = 84500

     disk_io = 'none'

     nstep= 12

     pseudo_dir = '~/pseudo/',

 /

 &system

    ibrav = 0,

    nat =  48
    ntyp = 2

    ecutwfc = 45 , ecutrho = 360,

    occupations='smearing', smearing='mv', degauss=0.02

/

  &electrons

     diagonalization='david',

     mixing_mode  =  'local-TF',

     mixing_beta = 0.7

   /

   &ions

     ion_dynamics = 'bfgs'

  /

   &cell

     cell_dynamics = 'bfgs',

   /

 ATOMIC_SPECIES

 Mo  95.5     Mo.pw91-n-van.UPF

 S   32.065   S.pw91-van_ak.UPF

K_POINTS {automatic}
  2  2  2 0 0 0
  
CELL_PARAMETERS (angstrom)
   9.073919578820229E+00   0.000000000000000E+00   0.000000000000000E+00
   1.195382737216320E-01   1.020475877070060E+01   0.000000000000000E+00
   4.378544509988330E-01   3.415998933698480E-01   1.086814222572180E+01
  
ATOMIC_POSITIONS (angstrom)
   Mo   3.499968199681140E+00   1.585727814673980E+00   7.453988830978510E+00
   Mo   3.623141354859720E+00   3.803177422182460E+00   9.521542857969170E+00
   Mo   1.606135350402810E+00   1.787691388774960E+00   9.577936819519630E+00
   Mo   1.597985703943240E+00   3.810260423713650E+00   7.465047205113740E+00
   Mo   8.073675989771690E+00   6.620856705839950E+00   6.497140706130000E+00
   Mo   8.502847754768410E+00   8.592687143797461E+00   8.388909318500520E+00
   Mo   6.120884911046480E+00   7.097293400369940E+00   8.923725248473421E+00
   Mo   6.242979475102170E+00   9.003228432986150E+00   6.746700346666410E+00
   Mo   7.692394745422200E+00   1.724104434571820E+00   1.912566545557270E+00
   Mo   7.873481542479350E+00   3.886645956190510E+00   3.968671868016790E+00
   Mo   6.004638455651790E+00   1.598421828551420E+00   4.196771505308040E+00
   Mo   5.571021237008840E+00   3.804754453472720E+00   2.081395373346350E+00
   Mo   4.224107642011080E+00   5.959844492093020E+00   4.759217153130900E-01
   Mo   3.861276926151420E+00   9.584678722492891E+00   5.109282991925770E+00
   Mo   2.293977881586880E+00   6.571973024201020E+00   2.608254682523090E+00
   Mo   1.074579480786760E+00   9.059161456991999E+00   8.782141061532360E-01
    S   4.020800718965200E+00   1.456371575231820E+00   9.825055293884461E+00
    S   5.271733437387100E+00   1.462761046998310E+00   1.961811399304740E+00
    S   3.943247937406510E+00   3.957847141458580E+00   7.148920292461710E+00
    S   8.377982589063540E+00   4.081723775987610E+00   6.430537696739620E+00
    S   8.241602661206739E+00   1.935474520835550E+00   1.025345301593120E+01
    S   5.932020277184360E+00   4.322843606505570E+00   1.035397168520570E+01
    S   5.945072137186170E+00   1.296075490221390E+00   6.750964265035830E+00
    S   5.540756868882630E+00   3.916461273825880E+00   4.556259484812120E+00
    S   8.369788903675079E+00   6.331596878906480E+00   8.942968808077779E+00
    S   4.632627694056600E-01   6.801910085138960E+00   1.134759028477270E+00
    S   8.628544558601559E+00   8.969597036815349E+00   6.069475825077040E+00
    S   3.795720450371390E+00   9.269385130299890E+00   7.371481582463310E+00
    S   3.766908671446070E+00   6.413443041700940E+00   9.161868807513740E+00
    S   1.315153139920460E+00   9.514065480869091E+00   9.526656318820351E+00
    S   1.456409367034640E+00   6.195733310646370E+00   6.766644727934850E+00
    S   2.196008082214320E+00   8.233505382305390E+00   4.203590104658650E+00
    S   8.453261358031041E+00   1.560311164627310E+00   4.212749749452090E+00
    S   1.116853764873490E+00   1.502764955577630E+00   7.231878055128370E+00
    S   7.873837077592560E+00   4.130628805562210E+00   1.581805486732870E+00
    S   3.158663862350230E+00   3.839961327715180E+00   1.204924235379680E+00
    S   3.443056900874730E+00   1.577216707510860E+00   4.829127018031290E+00
    S   1.299810662581590E+00   4.666215911506860E+00   3.728520359678710E+00
    S   1.131566330028840E+00   1.295207736297050E+00   1.284684136507350E+00
    S   1.355233312942960E+00   4.209390629444300E+00   9.729449738519250E+00
    S   4.686786059821380E+00   6.061708841539930E+00   2.920551915404470E+00
    S   5.658975434264980E+00   6.648219095568030E+00   6.575107456037330E+00
    S   3.308565676872880E+00   8.246788739578230E+00   9.960235366024710E-01
    S   7.892657849999530E+00   9.485405436684880E+00   1.679677714360710E+00
    S   7.854702348973490E+00   6.364320509371580E+00   4.071957382837220E+00
    S   5.965047190801730E+00   9.284798461097090E+00   4.250823880288580E+00
    S   6.352069776048940E+00   7.020398079472320E+00   4.919990425429100E-01
    S   6.449872592917680E+00   9.434212044820111E+00   9.152750332923370E+00
