 &control

     calculation = 'scf',

     restart_mode='from_scratch',

     tprnfor=.true.

     prefix='MoS2',

     outdir='./tmp',

     max_seconds = 84500

     disk_io = 'none'

     pseudo_dir = '~/pseudo/',

 /

 &system

    ibrav = 0,

    nat =  24
    ntyp = 2

    ecutwfc = 45 , ecutrho = 360,

    occupations='smearing', smearing='mv', degauss=0.02

/

  &electrons

     diagonalization='david',

     mixing_mode  =  'local-TF',

     mixing_beta = 0.7

   /

   &ions

     ion_dynamics = 'bfgs'

  /

   &cell

     cell_dynamics = 'bfgs',

   /

 ATOMIC_SPECIES

 Mo  95.5     Mo.pw91-n-van.UPF

 S   32.065   S.pw91-van_ak.UPF

K_POINTS {automatic}
  3  3  2 0 0 0
  
CELL_PARAMETERS (angstrom)
   6.571292669597382E+00   0.000000000000000E+00   0.000000000000000E+00
  -3.206367483063672E+00   5.665864788003442E+00   0.000000000000000E+00
  -1.165814511450372E+00  -1.162662562549985E+00   1.114243837880248E+01
  
ATOMIC_POSITIONS (angstrom)
   Mo   1.902271159533620E-01   1.448568958410110E+00   3.585081720396620E+00
   Mo  -1.219683363910060E+00   4.448787324503190E+00   2.452800309003020E+00
   Mo   3.687010808314540E+00   1.405365116796360E+00   2.404218923453770E+00
   Mo   2.093702047934570E+00   4.117411448086430E+00   3.090421355233020E+00
   Mo  -2.831896371818470E-01  -2.995017626643470E-01   7.791354853646050E+00
   Mo  -1.415760791889900E+00   2.730232025190420E+00   7.832886309579920E+00
   Mo   3.152299522115880E+00   6.540500675476391E-02   8.577759979109951E+00
   Mo   1.591470947825760E+00   2.757257283965520E+00   8.576822515327700E+00
    S   5.798511270715270E-01  -6.349249011004070E-01   3.803840468305940E+00
    S   1.691688300606700E-01   3.833691719948020E+00   4.029666465540550E+00
    S   4.980302802725940E+00   4.226189773929980E-01   4.007635707799230E+00
    S   2.400590574389370E+00   2.215378025842500E+00   4.196046768463900E+00
    S  -1.552667405029270E+00   7.846694530074519E-01   9.175965185086600E+00
    S  -3.330669017734060E+00   3.735574208866670E+00   9.514755846830880E+00
    S   1.873811026513190E+00   9.512763230033781E-01   9.593188038990821E+00
    S  -1.619830613533490E-01   3.527599173537770E+00   9.184631358718910E+00
    S   1.655373628414430E+00   1.131538004540920E+00   2.170507322096690E+00
    S   5.285874550892879E-01   4.983650717950650E+00   1.670653108825750E+00
    S   5.800789394929970E+00   2.325524038594120E+00   1.911314357640660E+00
    S   3.563221562706180E+00   3.311737320171930E+00   1.650300915771930E+00
    S   1.437107880990530E-01   1.467318249917870E+00   7.113259019851000E+00
    S  -1.652268028099610E+00   4.485485940773290E+00   7.098235578193670E+00
    S   3.137325746752480E+00   1.791519022866750E+00   7.268200971931320E+00
    S   1.458472078459940E+00   4.371528529864120E+00   7.268121015291190E+00
