 &control

     calculation = 'scf',

     restart_mode='from_scratch',

     tprnfor=.true.

     prefix='MoS2',

     outdir='./tmp',

     max_seconds = 84500

     disk_io = 'none'

     pseudo_dir = '~/pseudo/',

 /

 &system

    ibrav = 0,

    nat =  24
    ntyp = 2

    ecutwfc = 45 , ecutrho = 360,

    occupations='smearing', smearing='mv', degauss=0.02

/

  &electrons

     diagonalization='david',

     mixing_mode  =  'local-TF',

     mixing_beta = 0.7

   /

   &ions

     ion_dynamics = 'bfgs'

  /

   &cell

     cell_dynamics = 'bfgs',

   /

 ATOMIC_SPECIES

 Mo  95.5     Mo.pw91-n-van.UPF

 S   32.065   S.pw91-van_ak.UPF

K_POINTS {automatic}
  3  3  1 0 0 0
  
CELL_PARAMETERS (angstrom)
   6.611874658259961E+00   0.000000000000000E+00   0.000000000000000E+00
  -3.031233688059111E+00   5.909138506864601E+00   0.000000000000000E+00
   1.659575676466312E-01  -5.163380073713083E-01   2.136273562483092E+01
  
ATOMIC_POSITIONS (angstrom)
   Mo   2.530840022180330E+00   4.298629617024800E-01   3.565704447871750E+00
   Mo   1.069958352690120E+00   3.494798954203120E+00   3.499461604705380E+00
   Mo   5.874755005068730E+00   6.178782596110260E-01   3.421578125271000E+00
   Mo   4.361349853411070E+00   3.368881795924350E+00   3.537504376583840E+00
   Mo  -5.823581051715820E-01   1.886477985895290E+00   1.793058716152550E+01
   Mo  -2.163310065131620E+00   4.904451788134570E+00   1.770270111820600E+01
   Mo   2.679521659902140E+00   1.918692411960210E+00   1.778248747393970E+01
   Mo   1.171518942975240E+00   4.839841659620440E+00   1.798293502501560E+01
    S  -7.489098286461000E-01   2.556374604909440E+00   4.605275069496230E+00
    S  -2.237678711657450E+00   5.566156816868990E+00   4.556360613497890E+00
    S   2.644072184840030E+00   2.491295554249110E+00   4.598260888123380E+00
    S   9.923744305064210E-01   5.432384718854030E+00   4.622583443320540E+00
    S   1.022294155562160E+00   9.633241578747470E-01   1.890168057301500E+01
    S  -4.673398716504450E-01   3.846053917954570E+00   1.892686884933840E+01
    S   4.360912808397050E+00   8.817527300252330E-01   1.890294395464660E+01
    S   2.832158616811820E+00   3.904366488603230E+00   1.888099088507510E+01
    S   9.409018324917350E-01   1.583746593446190E+00   2.402810722989450E+00
    S  -6.032668723663600E-01   4.418225388406950E+00   2.481602738099550E+00
    S   4.306380026662170E+00   1.498807074539140E+00   2.445823920576600E+00
    S   2.588579153034830E+00   4.533523368179610E+00   2.519092084064320E+00
    S   2.688623591574400E+00  -9.073389647479541E-02   1.680016895483790E+01
    S   1.246220769257330E+00   2.901107770874420E+00   1.677566690804890E+01
    S   6.022404918972960E+00  -2.643056037870680E-02   1.676832828762290E+01
    S   4.473298032581470E+00   2.903081652540530E+00   1.676939344849210E+01
