 &control

     calculation = 'scf',

     restart_mode='from_scratch',

     tprnfor=.true.

     prefix='MoS2',

     outdir='./tmp',

     max_seconds = 84500

     disk_io = 'none'

     pseudo_dir = '~/pseudo/',

 /

 &system

    ibrav = 0,

    nat =  24
    ntyp = 2

    ecutwfc = 45 , ecutrho = 360,

    occupations='smearing', smearing='mv', degauss=0.02

/

  &electrons

     diagonalization='david',

     mixing_mode  =  'local-TF',

     mixing_beta = 0.7

   /

   &ions

     ion_dynamics = 'bfgs'

  /

   &cell

     cell_dynamics = 'bfgs',

   /

 ATOMIC_SPECIES

 Mo  95.5     Mo.pw91-n-van.UPF

 S   32.065   S.pw91-van_ak.UPF

K_POINTS {automatic}
  3  6  1 0 0 0
  
CELL_PARAMETERS (angstrom)
   6.479963451008186E+00   0.000000000000000E+00   0.000000000000000E+00
  -1.606609270871772E+00   2.803670391667457E+00   0.000000000000000E+00
  -4.570717844575246E-01  -1.500057525907079E+00   2.329945787616368E+01
  
ATOMIC_POSITIONS (angstrom)
   Mo   1.465902281331010E-01  -5.516722659602660E-01   8.765587394544550E+00
   Mo  -4.308369094145270E-01  -1.418776998351650E+00   2.007772855565490E+01
   Mo   3.388006687081000E+00  -4.419075778514880E-01   8.540447286288780E+00
   Mo   2.697567314660760E+00  -1.441819525866470E+00   2.098692830503620E+01
   Mo  -7.823075182530570E-02  -1.337713389023760E-01   3.018235311036180E+00
   Mo  -4.562912277972270E-01  -9.071998340998930E-01   1.452222236750150E+01
   Mo   3.125880606888420E+00  -1.279889000630020E-01   2.843593150397380E+00
   Mo   2.762195821528450E+00  -8.688979447664180E-01   1.445184888742160E+01
    S   1.843571125153380E+00  -2.073863452743580E-01   9.768913598311901E+00
    S   1.079707470961700E+00  -5.272586753412360E-01   2.189052717592340E+01
    S   5.080777199623860E+00   2.622133128649510E-02   9.849434340798251E+00
    S   4.281723887245340E+00  -5.472860168980810E-01   2.158271702701550E+01
    S  -3.146418784589190E-01   1.659142402192390E+00   1.793735510392580E+00
    S  -3.402021678279670E-01   8.913553233487180E-01   1.331850093227010E+01
    S   2.871626256645870E+00   1.744491323622400E+00   1.745300673824890E+00
    S   2.675867328559900E+00   9.849832325516110E-01   1.330129305821510E+01
    S   8.218744464442281E-02   1.885221942401360E+00   4.128046806584080E+00
    S  -4.985083709493790E-01   8.719065909735130E-01   1.568148105740470E+01
    S   3.514948749265380E+00   1.584386722477100E+00   4.048592639120880E+00
    S   2.791482468200420E+00   1.076784050867200E+00   1.566501035543860E+01
    S   1.445080278685810E+00   8.410685345938900E-01   7.463208530480510E+00
    S   1.216890593703620E+00  -3.279838829877760E-01   1.949657698489260E+01
    S   4.846567629778720E+00   6.690596437672790E-01   7.518921758719380E+00
    S   4.706697140062090E+00  -4.121946870310060E-01   1.912588305346440E+01
