 &control

     calculation = 'scf',

     restart_mode='from_scratch',

     tprnfor=.true.

     prefix='MoS2',

     outdir='./tmp',

     max_seconds = 84500

     disk_io = 'none'

     pseudo_dir = '~/pseudo/',

 /

 &system

    ibrav = 0,

    nat =  12
    ntyp = 2

    ecutwfc = 45 , ecutrho = 360,

    occupations='smearing', smearing='mv', degauss=0.02

/

  &electrons

     diagonalization='david',

     mixing_mode  =  'local-TF',

     mixing_beta = 0.7

   /

   &ions

     ion_dynamics = 'bfgs'

  /

   &cell

     cell_dynamics = 'bfgs',

   /

 ATOMIC_SPECIES

 Mo  95.5     Mo.pw91-n-van.UPF

 S   32.065   S.pw91-van_ak.UPF

K_POINTS {automatic}
  3  3  1 0 0 0
  
CELL_PARAMETERS (angstrom)
   6.322155952614283E+00   0.000000000000000E+00   0.000000000000000E+00
  -3.048580775835150E+00   5.567359038545638E+00   0.000000000000000E+00
   3.890327907357899E-01   5.552967934067161E-02   1.731889344943791E+01
  
ATOMIC_POSITIONS (angstrom)
   Mo   1.496431135861530E-02  -7.607413636396269E-02  -1.194146431942180E-01
   Mo  -1.514427707744180E+00   2.770653082544950E+00  -9.086551931748971E-02
   Mo   3.170309303438720E+00  -5.473647981903600E-03  -1.491174429657230E-01
   Mo   1.610546051859560E+00   2.817984333370660E+00   3.518826160834480E-01
    S  -3.484326456020320E-02   2.110528081007540E+00   1.230804886130170E+00
    S  -1.490874535061780E+00   4.801866692688500E+00   1.068696909203850E+00
    S   3.195862159874680E+00   2.011851420071370E+00   1.221972285804720E+00
    S   1.710630498948290E+00   4.938279435200350E+00   1.172244690042150E+00
    S   4.445084367636220E-01   1.707759942443290E+00   1.619139484877550E+01
    S  -1.069840813974630E+00   4.531974121012560E+00   1.603653092096630E+01
    S   3.674099770730890E+00   1.802300305589920E+00   1.617265481302240E+01
    S   1.947316923149020E+00   4.425511617595370E+00   1.619630442259470E+01
