 &control

     calculation = 'scf',

     restart_mode='from_scratch',

     tprnfor=.true.

     prefix='MoS2',

     outdir='./tmp',

     max_seconds = 84500

     disk_io = 'none'

     pseudo_dir = '~/pseudo/',

 /

 &system

    ibrav = 0,

    nat =  36
    ntyp = 2

    ecutwfc = 45 , ecutrho = 360,

    occupations='smearing', smearing='mv', degauss=0.02

/

  &electrons

     diagonalization='david',

     mixing_mode  =  'local-TF',

     mixing_beta = 0.7

   /

   &ions

     ion_dynamics = 'bfgs'

  /

   &cell

     cell_dynamics = 'bfgs',

   /

 ATOMIC_SPECIES

 Mo  95.5     Mo.pw91-n-van.UPF

 S   32.065   S.pw91-van_ak.UPF

K_POINTS {automatic}
  3  6  1 0 0 0
  
CELL_PARAMETERS (angstrom)
   6.540820199999999E+00   0.000000000000000E+00   0.000000000000000E+00
  -1.635205050000000E+00   2.832258475000000E+00   0.000000000000000E+00
   0.000000000000000E+00   0.000000000000000E+00   4.370231000000000E+01
  
ATOMIC_POSITIONS (angstrom)
   Mo   1.825191711301440E+00   9.119627057621090E-01   7.332446397285760E+00
   Mo   1.683380261557220E+00   9.682620227704860E-01   2.893739316813760E+01
   Mo   4.912379403242340E+00   1.022781923752050E+00   7.095096317301220E+00
   Mo   4.716686458671290E+00   9.728232163439460E-01   2.907100630323020E+01
   Mo   5.024934082189830E-02   1.830126481415150E+00   1.437789463966690E+01
   Mo   1.232899586070930E-02   1.875169183708890E+00   3.621453063705300E+01
   Mo   3.344894553869890E+00   1.998077486142970E+00   1.471214682191160E+01
   Mo   3.139932553838160E+00   1.773231293441270E+00   3.631491126129630E+01
   Mo  -1.328448884884600E-02  -2.812574971184010E-03   2.164674369545250E+01
   Mo   1.618831978334470E-02   1.238401479703580E-01   4.354122721819110E+01
   Mo   3.116468983391110E+00  -1.270698134507260E-01   2.185874795060720E+01
   Mo   3.346808464194070E+00  -1.817429715140630E-01   4.373109402314900E+01
    S   1.168297913942230E-02   1.983531231509220E+00   1.774962977454510E+00
    S   3.870131490790770E-02   1.830689577854100E+00   2.326309272660890E+01
    S   3.467224819957840E+00   1.856289765310280E+00   1.583839490919280E+00
    S   3.090811126817510E+00   1.805580152598650E+00   2.348108703801520E+01
    S  -1.028356691591230E-01   1.194209646926910E-01   5.551342744754250E+00
    S  -1.618583529497990E-01  -7.984821897175221E-02   2.761181276796850E+01
    S   3.188010344498140E+00   5.781051882574270E-04   5.492246776977230E+00
    S   3.230114856967880E+00   2.367070439786120E-02   2.733117439825580E+01
    S   8.489075118293180E-02   6.853029890310140E-02   9.050881368356819E+00
    S   9.002291162010040E-02   2.977710684139330E-02   3.091050858883640E+01
    S   3.179801129907170E+00  -1.062114464140700E-01   8.740049161449440E+00
    S   3.379201833545380E+00  -1.061401531961150E-01   3.060441958037200E+01
    S   1.538254884916570E+00   1.012908480556660E+00   1.279737181800940E+01
    S   1.538213426583190E+00   1.069458100806170E+00   3.468738999663320E+01
    S   4.994564995015480E+00   7.860843823483530E-01   1.287379027575700E+01
    S   4.948207862407470E+00   8.693194413287320E-01   3.498989263252480E+01
    S   1.636967438927590E+00   1.040957466250880E+00   1.599200558955130E+01
    S   1.550185697288250E+00   9.136659035102230E-01   3.819658009571990E+01
    S   4.976583236254890E+00   9.166635704030019E-01   1.635193471241680E+01
    S   4.730737908438260E+00   9.949478575113760E-01   3.793547929511780E+01
    S   1.356874393621810E-01   1.947869049739100E+00   2.010766989198340E+01
    S   1.829384042483150E-01   1.927453519084350E+00   4.202244173482820E+01
    S   3.267298597006500E+00   1.884952315013660E+00   2.044187656932200E+01
    S   3.397286621493730E+00   1.924827132995810E+00   4.224327632042940E+01
