 &control

     calculation = 'scf',

     restart_mode='from_scratch',

     tprnfor=.true.

     prefix='MoS2',

     outdir='./tmp',

     max_seconds = 84500

     disk_io = 'none'

     pseudo_dir = '~/pseudo/',

 /

 &system

    ibrav = 0,

    nat =  24
    ntyp = 2

    ecutwfc = 45 , ecutrho = 360,

    occupations='smearing', smearing='mv', degauss=0.02

/

  &electrons

     diagonalization='david',

     mixing_mode  =  'local-TF',

     mixing_beta = 0.7

   /

   &ions

     ion_dynamics = 'bfgs'

  /

   &cell

     cell_dynamics = 'bfgs',

   /

 ATOMIC_SPECIES

 Mo  95.5     Mo.pw91-n-van.UPF

 S   32.065   S.pw91-van_ak.UPF

K_POINTS {automatic}
  3  3  1 0 0 0
  
CELL_PARAMETERS (angstrom)
   6.380630000000000E+00   0.000000000000000E+00   0.000000000000000E+00
  -3.190316000000000E+00   5.525788000000000E+00   0.000000000000000E+00
   0.000000000000000E+00   0.000000000000000E+00   2.487900400000000E+01
  
ATOMIC_POSITIONS (angstrom)
   Mo   1.571298320017030E+00   7.381999881920270E-01   3.797400116984770E+00
   Mo   5.587345042068630E-02   3.791495613119240E+00   3.878795094361930E+00
   Mo   4.973873025454150E+00   9.879884823771290E-01   3.723428864111530E+00
   Mo   3.227585372605290E+00   3.509204421578720E+00   3.809799422426170E+00
   Mo  -2.791931873282670E-02   1.993404793711440E+00   2.128682234961440E+01
   Mo  -1.681518977971310E+00   4.598945280907730E+00   2.097894608722930E+01
   Mo   3.116567159359910E+00   1.668748585362420E+00   2.122684378222600E+01
   Mo   1.525805475193240E+00   4.491974854531280E+00   2.100939251399940E+01
    S  -1.191759125733610E-01   2.000411363272180E+00   5.310750472385980E+00
    S  -1.663090284560530E+00   4.505160395014930E+00   5.125110102417760E+00
    S   3.194816091297810E+00   1.667046139640020E+00   5.381577952769550E+00
    S   1.585480366806670E+00   4.592834172208120E+00   5.484054467761750E+00
    S   1.672346452229750E+00   7.657954778963780E-01   2.282395826745290E+01
    S   1.714234791185360E-01   3.733645196435830E+00   2.281433105883800E+01
    S   4.891101519369270E+00   7.560004267738150E-01   2.276450615894550E+01
    S   3.360282399264910E+00   3.782658060136780E+00   2.268739300743290E+01
    S  -1.425247397516180E-01   1.789059125730780E+00   2.024901240680250E+00
    S  -1.597030795872900E+00   4.593034177987010E+00   1.955226635445020E+00
    S   3.090766454677740E+00   1.780662628587870E+00   2.317156062688840E+00
    S   1.663550310239030E+00   4.551638264885310E+00   1.974610956016300E+00
    S   1.647186864603480E+00   9.634398456526510E-01   1.978274015562100E+01
    S   1.640912274622990E-01   3.797785506362620E+00   1.958461670572850E+01
    S   4.803030486421180E+00   8.936358756046870E-01   1.939701048310220E+01
    S   3.140317828452730E+00   3.697825113145900E+00   1.978750053328280E+01
