 &control

     calculation = 'scf',

     restart_mode='from_scratch',

     tprnfor=.true.

     prefix='MoS2',

     outdir='./tmp',

     max_seconds = 84500

     disk_io = 'none'

     nstep= 25

     pseudo_dir = '~/pseudo/',

 /

 &system

    ibrav = 0,

    nat =  30
    ntyp = 2

    ecutwfc = 45 , ecutrho = 360,

    occupations='smearing', smearing='mv', degauss=0.02

/

  &electrons

     diagonalization='david',

     mixing_mode  =  'local-TF',

     mixing_beta = 0.7

   /

   &ions

     ion_dynamics = 'bfgs'

  /

   &cell

     cell_dynamics = 'bfgs',

   /

 ATOMIC_SPECIES

 Mo  95.5     Mo.pw91-n-van.UPF

 S   32.065   S.pw91-van_ak.UPF

K_POINTS {automatic}
  2  2  2 0 0 0
  
CELL_PARAMETERS (angstrom)
   8.109822333362040E+00   0.000000000000000E+00   0.000000000000000E+00
   1.075106222527350E+00   8.825289723450190E+00   0.000000000000000E+00
   1.831104312934630E+00   1.626475136024770E+00   1.068279548029170E+01
  
ATOMIC_POSITIONS (angstrom)
   Mo   5.919255731473910E+00   4.792568438317180E+00   3.422046633502330E+00
   Mo   2.367172620573050E+00   1.124092844022890E+00   3.016157958183970E+00
   Mo   9.946037649921831E+00   7.845855544556480E+00   8.526877932553370E+00
   Mo   7.110233615547330E+00   4.321322902226430E+00   7.948911802741190E+00
   Mo   7.887687543401250E+00   1.710989485854800E+00   9.023888099001161E+00
   Mo   3.114382074103540E+00   4.179349145429820E+00   3.204296150723310E+00
   Mo   8.512841846756521E+00   3.098369076392130E+00   3.869928049429180E+00
   Mo   4.998506642936980E+00   1.955001790320800E+00   3.856596347892320E+00
   Mo   4.429394320470030E+00   7.181070054651320E+00   2.651963590121790E+00
   Mo   7.234318530904240E+00   1.891508625109150E+00   6.317695108768800E+00
    S   1.440303500176300E+00   5.372720698803550E+00   3.947223661513630E+00
    S   4.307124257895990E+00   5.803870749270960E+00   4.874896704626730E+00
    S   2.890554921884290E+00   2.505180312093080E+00   4.890063960408340E+00
    S   3.743922340549290E+00   7.999400337040730E+00   4.732249804087810E+00
    S   8.278594055703440E+00   8.058455284569210E-01   4.225152897564820E+00
    S   8.596305802236261E+00   6.372038166047300E+00   7.641343003834180E+00
    S   1.032295240100090E+01   9.832870826996610E+00   7.268758313108950E+00
    S   7.018801446670450E+00   4.111421939737240E+00   5.514506997507990E+00
    S   6.542026216283180E+00   9.349109879005910E+00   5.572090295859470E+00
    S   6.841099602537040E+00   6.673321258784860E+00   2.831214399775420E+00
    S   4.460886079275940E+00   5.623326856864030E-01   2.026302253514350E+00
    S   5.798631319229020E+00   2.301761392615920E+00   8.227756661777979E+00
    S   8.981701126714720E+00   8.738306788442230E+00   1.044559694189370E+01
    S   3.856537878209160E+00   7.167748176254840E+00   8.810681359256600E+00
    S   8.654953606372199E+00   3.699145507216350E+00   9.697403295050339E+00
    S   5.351418746745000E+00   5.444710509627740E+00   8.432991340241520E+00
    S   1.635680466512280E+00   2.970545571201710E+00   1.677990159287920E+00
    S   4.478561048429080E+00   5.073619701699710E+00   1.440445948725620E+00
    S   2.619480799197960E+00   8.197973272320260E+00   1.536036504082190E+00
    S   6.703359192322710E+00   2.863409928032110E+00   2.291564122600150E+00
