 &control

     calculation = 'relax',

     restart_mode='from_scratch',

     tprnfor=.true.

     prefix='MoS2',

     outdir='./tmp',

     max_seconds = 84500

     disk_io = 'none'

     pseudo_dir = '~/pseudo/',

     nstep= 4

 /

 &system

    ibrav = 0,

    nat =  36
    ntyp = 2

    ecutwfc = 45 , ecutrho = 360,

    occupations='smearing', smearing='mv', degauss=0.02

/

  &electrons

     diagonalization='david',

     mixing_mode  =  'local-TF',

     mixing_beta = 0.7

   /

   &ions

     ion_dynamics = 'bfgs'

  /

   &cell

     cell_dynamics = 'bfgs',

   /

 ATOMIC_SPECIES

 Mo  95.5     Mo.pw91-n-van.UPF

 S   32.065   S.pw91-van_ak.UPF

K_POINTS {automatic}
  3  3  1 0 0 0
  
CELL_PARAMETERS (angstrom)
   6.450797834865040E+00   0.000000000000000E+00   0.000000000000000E+00
   3.242134252011160E+00   5.569001306407120E+00   0.000000000000000E+00
  -4.498241401786650E-01  -3.687040367730000E-01   2.273703710922520E+01
  
ATOMIC_POSITIONS (angstrom)
   Mo   7.590604326378830E+00   4.926344912777800E+00   8.404523738408020E+00
   Mo   5.988727119056270E+00   2.135722410301850E+00   8.440831737264110E+00
   Mo   2.739297860045540E+00   2.137517605650420E+00   8.561889067562561E+00
   Mo   4.369042267908300E+00   4.936103157749180E+00   8.308058366736260E+00
   Mo   6.718131579703650E+00   5.837511481315360E+00   1.558501193859460E+01
   Mo   5.139423034235010E+00   3.069470760812310E+00   1.534382816422850E+01
   Mo   1.866166167904260E+00   3.067131707924810E+00   1.528849151800640E+01
   Mo   3.500041121788200E+00   5.864005999503900E+00   1.538120532649580E+01
   Mo   8.955113825045070E-01  -3.841821122751900E-01   2.159130557580360E+01
   Mo   2.529169746466600E+00   2.362274451496160E+00   2.152299797334200E+01
   Mo   5.764578030282550E+00   2.427790954612950E+00   2.173307045394180E+01
   Mo   4.138149902030650E+00  -4.159077165242580E-01   2.169421357210150E+01
    S   9.505906454697451E+00   4.535195723835270E+00   4.419063881230510E-01
    S   7.906543738126380E+00   1.832209825315260E+00   4.465131436369180E-01
    S   4.538964380920400E+00   1.853389549744010E+00   4.352161103954380E-01
    S   6.184750437438870E+00   4.686383721136190E+00   5.175537880859000E-01
    S   2.715722708906850E+00   3.924056638537420E+00   6.848783128090390E+00
    S   1.181381187591200E+00   1.291044317598980E+00   6.870006731336550E+00
    S   4.292754144608980E+00   1.262456481268250E+00   6.913012366239500E+00
    S   6.003662676571180E+00   3.963863065680420E+00   6.821635887085610E+00
    S   2.800353962660780E+00   4.066234356608120E+00   9.990527625657551E+00
    S   1.105762742372070E+00   1.128874403297470E+00   1.003450847982770E+01
    S   4.417571771498430E+00   1.181787632706660E+00   1.006465807767850E+01
    S   5.937230508280310E+00   4.033984087538210E+00   9.957359050492540E+00
    S   3.518710153566940E+00   2.029695102983500E+00   1.388228784989150E+01
    S   5.205054042112730E+00   4.994210288652120E+00   1.387971631950720E+01
    S   1.795704007230790E+00   5.012389635585590E+00   1.384596860055770E+01
    S   2.554543537150340E-01   2.114139998301300E+00   1.372835256740550E+01
    S   3.492290565558520E+00   2.214580852423250E+00   1.697934706789830E+01
    S   5.033615488471530E+00   4.852971581919880E+00   1.703763816889670E+01
    S   8.402773349229729E+00   4.824446648147230E+00   1.697025191365490E+01
    S   6.770750562205540E+00   2.178326118064740E+00   1.691858325093220E+01
    S   8.935751194597589E+00   4.249701245086170E+00   2.003546299235370E+01
    S   7.248198669938820E+00   1.467438475614300E+00   2.002725067023110E+01
    S   4.218879253110520E+00   1.429831986362800E+00   2.004753748378210E+01
    S   5.790583599664490E+00   4.232899450071140E+00   2.006389585826560E+01
