 &control

     calculation = 'relax',

     restart_mode='from_scratch',

     tprnfor=.true.

     prefix='MoS2',

     outdir='./tmp',

     max_seconds = 84500

     disk_io = 'none'

     pseudo_dir = '~/pseudo/',

     nstep= 4

 /

 &system

    ibrav = 0,

    nat =  24
    ntyp = 2

    ecutwfc = 45 , ecutrho = 360,

    occupations='smearing', smearing='mv', degauss=0.02

/

  &electrons

     diagonalization='david',

     mixing_mode  =  'local-TF',

     mixing_beta = 0.7

   /

   &ions

     ion_dynamics = 'bfgs'

  /

   &cell

     cell_dynamics = 'bfgs',

   /

 ATOMIC_SPECIES

 Mo  95.5     Mo.pw91-n-van.UPF

 S   32.065   S.pw91-van_ak.UPF

K_POINTS {automatic}
  3  3  1 0 0 0
  
CELL_PARAMETERS (angstrom)
   6.441812219818220E+00   0.000000000000000E+00   0.000000000000000E+00
   3.197084929955110E+00   5.626138381278060E+00   0.000000000000000E+00
   1.471545384421100E+00   1.401330613585070E+00   1.928954340191700E+01
  
ATOMIC_POSITIONS (angstrom)
   Mo   6.308810675815610E+00   5.829519323335520E+00   1.455303124781270E+01
   Mo   9.538200292934601E+00   5.819638137763160E+00   1.455266933059850E+01
   Mo   4.702035641536450E+00   3.008935676263650E+00   1.460437888992310E+01
   Mo   7.919679227354310E+00   3.013504589444550E+00   1.460745695818370E+01
   Mo   4.799857528424200E+00   1.218822702691300E+00   4.708609283021320E+00
   Mo   1.595038280314980E+00   1.213587084247500E+00   4.692210757695740E+00
   Mo   6.406854136793830E+00   4.029816627718300E+00   4.631301954212510E+00
   Mo   3.184835286963350E+00   4.028957571370780E+00   4.584163553079140E+00
    S   6.308331899562730E+00   3.987201204522410E+00   1.616055038354660E+01
    S   3.092907684339220E+00   3.979256570427990E+00   1.616336882195270E+01
    S   7.925154723653390E+00   6.745210868177880E+00   1.614176178356980E+01
    S   4.698388408511100E+00   6.750622156864550E+00   1.614657578708640E+01
    S   6.408715227352320E+00   3.256219009145390E-01   3.094720109648450E+00
    S   3.203561840179680E+00   3.006408766568880E-01   3.099326552524070E+00
    S   7.996582675689780E+00   3.043651721096340E+00   3.062664976587520E+00
    S   4.810353171006880E+00   3.039111401573620E+00   3.068413752961550E+00
    S   9.618991475025000E+00   5.848982600783740E+00   6.228325331582250E+00
    S   6.387935862884180E+00   5.863119457984040E+00   6.260019307553480E+00
    S   8.036969224792580E+00   3.122092690943960E+00   6.206915245049400E+00
    S   4.774194502138850E+00   3.132956126666860E+00   6.213574308006840E+00
    S   6.314820841141380E+00   3.934626221298140E+00   1.301634155514850E+01
    S   3.094928812125850E+00   3.927217421209450E+00   1.301515300091400E+01
    S   4.731602391354540E+00   1.162474415762800E+00   1.299716491298050E+01
    S   1.506943569141080E+00   1.170556777763190E+00   1.299369897662770E+01
