 &control

     calculation = 'scf',

     restart_mode='from_scratch',

     tprnfor=.true.

     prefix='MoS2',

     outdir='./tmp',

     max_seconds = 84500

     disk_io = 'none'

     pseudo_dir = '~/pseudo/',

 /

 &system

    ibrav = 0,

    nat =  24
    ntyp = 2

    ecutwfc = 45 , ecutrho = 360,

    occupations='smearing', smearing='mv', degauss=0.02

/

  &electrons

     diagonalization='david',

     mixing_mode  =  'local-TF',

     mixing_beta = 0.7

   /

   &ions

     ion_dynamics = 'bfgs'

  /

   &cell

     cell_dynamics = 'bfgs',

   /

 ATOMIC_SPECIES

 Mo  95.5     Mo.pw91-n-van.UPF

 S   32.065   S.pw91-van_ak.UPF

K_POINTS {automatic}
  3  3  1 0 0 0
  
CELL_PARAMETERS (angstrom)
   6.618228632193404E+00   0.000000000000000E+00   0.000000000000000E+00
  -3.030242507377274E+00   5.900789348657720E+00   0.000000000000000E+00
   1.795617698844159E-01  -5.115725851828477E-01   2.137179845828445E+01
  
ATOMIC_POSITIONS (angstrom)
   Mo   2.542461479856160E+00   4.318784060010630E-01   3.552175425577490E+00
   Mo   1.068044108327040E+00   3.498546578920940E+00   3.526004761230860E+00
   Mo   5.890029722959850E+00   6.144694011485400E-01   3.434718900564620E+00
   Mo   4.367300885585380E+00   3.384370727383910E+00   3.527026937488770E+00
   Mo  -5.747546141469670E-01   1.884542233529840E+00   1.792838545826020E+01
   Mo  -2.148376326019210E+00   4.892925602902060E+00   1.771222361884300E+01
   Mo   2.696367149122400E+00   1.919300053846650E+00   1.778635499140900E+01
   Mo   1.190207639719230E+00   4.829891239374120E+00   1.798353208764200E+01
    S  -7.442576495209340E-01   2.542101054793560E+00   4.623118971594400E+00
    S  -2.234682627073810E+00   5.557567855027570E+00   4.562643091772910E+00
    S   2.643534984399690E+00   2.487051435183830E+00   4.594915025807520E+00
    S   9.921265469419880E-01   5.432922216377540E+00   4.640631011222050E+00
    S   1.024013916825580E+00   9.761654744408280E-01   1.890547591696650E+01
    S  -4.849030258979680E-01   3.865556195146420E+00   1.891948694740140E+01
    S   4.356312829147240E+00   9.003746704051000E-01   1.889975423816470E+01
    S   2.825050881737920E+00   3.914751349298890E+00   1.888746825674470E+01
    S   9.826246750913360E-01   1.558605022663330E+00   2.423448604704250E+00
    S  -5.821070782987220E-01   4.392992483712760E+00   2.484768634409460E+00
    S   4.331511308704420E+00   1.503348396896310E+00   2.452415822161100E+00
    S   2.624193239643180E+00   4.497326993341210E+00   2.541405988359080E+00
    S   2.701991140887540E+00  -9.449467416874290E-02   1.680569374110050E+01
    S   1.258514938469710E+00   2.894181172942620E+00   1.677483545795310E+01
    S   6.040138058289540E+00  -2.047882655094350E-02   1.676273406227340E+01
    S   4.484144047701300E+00   2.907648932526480E+00   1.676913521007680E+01
