 &control

     calculation = 'scf',

     restart_mode='from_scratch',

     tprnfor=.true.

     prefix='MoS2',

     outdir='./tmp',

     max_seconds = 84500

     disk_io = 'none'

     pseudo_dir = '~/pseudo/',

 /

 &system

    ibrav = 0,

    nat =  24
    ntyp = 2

    ecutwfc = 45 , ecutrho = 360,

    occupations='smearing', smearing='mv', degauss=0.02

/

  &electrons

     diagonalization='david',

     mixing_mode  =  'local-TF',

     mixing_beta = 0.7

   /

   &ions

     ion_dynamics = 'bfgs'

  /

   &cell

     cell_dynamics = 'bfgs',

   /

 ATOMIC_SPECIES

 Mo  95.5     Mo.pw91-n-van.UPF

 S   32.065   S.pw91-van_ak.UPF

K_POINTS {automatic}
  3  6  1 0 0 0
  
CELL_PARAMETERS (angstrom)
   6.986676901806192E+00   0.000000000000000E+00   0.000000000000000E+00
  -1.736018841660724E+00   2.947794159729228E+00   0.000000000000000E+00
  -5.171040599887311E-01   6.530400913350869E+00   2.167180820365959E+01
  
ATOMIC_POSITIONS (angstrom)
   Mo   5.112250370217450E-01   3.240728691645870E+00   8.048840765084980E+00
   Mo  -7.536583340829940E-01   6.472964890107390E+00   1.855182173175420E+01
   Mo   3.885879449190700E+00   3.353577410371970E+00   7.761987310336210E+00
   Mo   2.846561452652310E+00   6.627648621370090E+00   1.962774446744720E+01
   Mo  -1.917994738449720E-01   1.210702791928280E-01   2.877251382212750E+00
   Mo  -4.672933468266280E-01   3.308618807029430E+00   1.368829448002510E+01
   Mo   3.324066396697390E+00   9.830536434660210E-02   2.739004618583520E+00
   Mo   2.854746178194490E+00   3.404122951501820E+00   1.338245348796570E+01
    S   1.956293741254750E+00   4.250289214590940E+00   9.107564318661140E+00
    S   1.252815772653370E+00   7.575419936342150E+00   2.043805543772210E+01
    S   5.430081944802700E+00   4.170813494589760E+00   8.863573861535700E+00
    S   4.723217817302810E+00   7.378122943207950E+00   2.002405395103950E+01
    S  -1.085483084558790E-01   1.960564530023780E+00   1.843718481164150E+00
    S  -5.367820771550980E-01   5.174084499119790E+00   1.252390916642920E+01
    S   3.439860539535820E+00   1.956728067934290E+00   1.782277804845540E+00
    S   2.731998342960870E+00   5.185031270093090E+00   1.250588624414370E+01
    S  -3.308068123413920E-02   3.978933848876930E+00   3.758828707178860E+00
    S  -6.063138229824780E-01   7.030076923825710E+00   1.462657000796200E+01
    S   3.437243461631940E+00   3.907539834636370E+00   3.812165920368420E+00
    S   2.917890965296120E+00   7.223688296705490E+00   1.445834004959020E+01
    S   1.886856769562000E+00   2.133597893681420E+00   6.957491901442740E+00
    S   1.166605024400580E+00   5.487414437855680E+00   1.805974100097590E+01
    S   5.284286952151070E+00   2.108822193496680E+00   6.688818950311810E+00
    S   4.716425968842860E+00   5.293566475334160E+00   1.794313896836040E+01
