 &control

     calculation = 'scf',

     restart_mode='from_scratch',

     tprnfor=.true.

     prefix='MoS2',

     outdir='./tmp',

     max_seconds = 84500

     disk_io = 'none'

     pseudo_dir = '~/pseudo/',

 /

 &system

    ibrav = 0,

    nat =  24
    ntyp = 2

    ecutwfc = 45 , ecutrho = 360,

    occupations='smearing', smearing='mv', degauss=0.02

/

  &electrons

     diagonalization='david',

     mixing_mode  =  'local-TF',

     mixing_beta = 0.7

   /

   &ions

     ion_dynamics = 'bfgs'

  /

   &cell

     cell_dynamics = 'bfgs',

   /

 ATOMIC_SPECIES

 Mo  95.5     Mo.pw91-n-van.UPF

 S   32.065   S.pw91-van_ak.UPF

K_POINTS {automatic}
  3  3  2 0 0 0
  
CELL_PARAMETERS (angstrom)
   6.466181903195642E+00   0.000000000000000E+00   0.000000000000000E+00
  -2.982882271889129E+00   5.691725068587449E+00   0.000000000000000E+00
  -1.134511762809310E-01  -4.955812966421038E-01   1.138779811164621E+01
  
ATOMIC_POSITIONS (angstrom)
   Mo   1.809611650944020E-01   1.647217017101870E+00   3.128054693933480E+00
   Mo  -1.119346499348440E+00   4.716946173046180E+00   2.414564995616340E+00
   Mo   3.466859086400350E+00   1.807476803003500E+00   2.676835507680750E+00
   Mo   1.968145715395790E+00   4.336879594034430E+00   3.602248262600900E+00
   Mo   1.221372923954720E+00   5.013547579020960E-01   8.818988077475259E+00
   Mo  -2.410235786338870E-01   3.357614695944930E+00   8.603792471123240E+00
   Mo   4.555058407005570E+00   6.424069380650270E-01   8.201013698811019E+00
   Mo   3.048284594107740E+00   3.489303181595530E+00   8.237230268534720E+00
    S   1.881152255655670E+00   3.989822288209380E-01   3.887225965517650E+00
    S   2.826596964505870E-01   3.252517492989920E+00   4.237410946660850E+00
    S   5.168687814464470E+00   6.369922343557620E-01   4.108347194918050E+00
    S   3.370907249666480E+00   3.067897921275050E+00   4.215508480228200E+00
    S  -5.457062846187600E-01   1.389172109532210E+00   9.670758620675141E+00
    S  -2.038534162117090E+00   4.190549207544790E+00   9.692771526192510E+00
    S   2.823828934078160E+00   1.438504203228330E+00   9.496622449120601E+00
    S   1.287263240118910E+00   4.240456300999960E+00   9.455793775198870E+00
    S   1.811439751697770E+00   8.396964023045520E-01   1.500281465431230E+00
    S   7.901395816467280E-01   4.190170094474300E+00   1.932126866130140E+00
    S   5.220773499761080E+00   1.785488311119980E+00   1.708335643285190E+00
    S   3.490518748973840E+00   3.867128356409550E+00   1.892558506533280E+00
    S   1.888181620440040E-01   1.678274317934390E+00   7.421456950371330E+00
    S  -1.410118310236650E+00   4.609599081754320E+00   7.430053374475390E+00
    S   3.529120199760530E+00   1.884813586034730E+00   7.122194766263650E+00
    S   1.906001275098550E+00   4.669660180967330E+00   7.067867303786300E+00
