 &control

     calculation = 'relax',

     restart_mode='from_scratch',

     tprnfor=.true.

     prefix='MoS2',

     outdir='./tmp',

     max_seconds = 84500

     disk_io = 'none'

     pseudo_dir = '~/pseudo/',

     nstep= 4

 /

 &system

    ibrav = 0,

    nat =  24
    ntyp = 2

    ecutwfc = 45 , ecutrho = 360,

    occupations='smearing', smearing='mv', degauss=0.02

/

  &electrons

     diagonalization='david',

     mixing_mode  =  'local-TF',

     mixing_beta = 0.7

   /

   &ions

     ion_dynamics = 'bfgs'

  /

   &cell

     cell_dynamics = 'bfgs',

   /

 ATOMIC_SPECIES

 Mo  95.5     Mo.pw91-n-van.UPF

 S   32.065   S.pw91-van_ak.UPF

K_POINTS {automatic}
  5  3  1 0 0 0
  
CELL_PARAMETERS (angstrom)
   3.208572506743190E+00   0.000000000000000E+00   0.000000000000000E+00
   1.258873764176006E-02   5.593658324501780E+00   0.000000000000000E+00
  -3.223488947622580E+00   3.235878559384280E+00   3.094090911899220E+01
  
ATOMIC_POSITIONS (angstrom)
   Mo   1.538507065211150E-02  -3.698980495367570E-01   3.442404326494440E+00
   Mo  -4.413359728920690E-01   4.763833986902430E+00   1.814718843832820E+01
   Mo   1.632939528639920E+00   2.433163572895850E+00   3.468053051161280E+00
   Mo   1.139439514142950E+00   1.994646936637220E+00   1.815702470957800E+01
   Mo   1.029140887282830E+00   8.165905689240679E+00   1.256173000617340E+01
   Mo  -5.957472690386940E-01   5.024614029549840E+00   2.775822444824390E+01
   Mo  -6.094268662935300E-01   5.364862712082670E+00   1.253505397675020E+01
   Mo  -2.164425233145940E+00   7.848797465524800E+00   2.773035328968680E+01
    S   1.617010834121720E+00   5.645644162240060E-01   5.020127438414800E+00
    S  -2.054857865102090E+00   1.102126205977470E-01   1.967085513984200E+01
    S   2.977773315092920E-02   3.381466535146410E+00   5.030905405988280E+00
    S  -4.643280300795580E-01   2.914714080699390E+00   1.969894636636660E+01
    S  -5.772887520942180E-01   7.206315623803370E+00   1.414016426053490E+01
    S  -2.194238951296580E+00   4.111527912195590E+00   2.934478482856910E+01
    S   9.909729904939630E-01   4.424534001531650E+00   1.413363449017100E+01
    S  -5.531167369394540E-01   6.925633974070260E+00   2.931018718304960E+01
    S   1.620136745065130E+00   5.643885868485110E-01   1.866861627794770E+00
    S   1.160093843389020E+00   5.723598634311800E+00   1.656508772611390E+01
    S   2.592013209254640E-02   3.340081490278990E+00   1.875193540052110E+00
    S  -4.555932309429410E-01   2.923250433718250E+00   1.656383372088050E+01
    S  -5.775436415236100E-01   7.245745407526470E+00   1.102319934279910E+01
    S  -2.202126467075100E+00   4.107950715863110E+00   2.616862492925760E+01
    S   9.942034581573330E-01   4.426542740182400E+00   1.100848946689530E+01
    S  -5.651379505650180E-01   6.878618363289970E+00   2.618036960648720E+01
