 &control

     calculation = 'scf',

     restart_mode='from_scratch',

     tprnfor=.true.

     prefix='MoS2',

     outdir='./tmp',

     max_seconds = 84500

     disk_io = 'none'

     pseudo_dir = '~/pseudo/',

 /

 &system

    ibrav = 0,

    nat =  36
    ntyp = 2

    ecutwfc = 45 , ecutrho = 360,

    occupations='smearing', smearing='mv', degauss=0.02

/

  &electrons

     diagonalization='david',

     mixing_mode  =  'local-TF',

     mixing_beta = 0.7

   /

   &ions

     ion_dynamics = 'bfgs'

  /

   &cell

     cell_dynamics = 'bfgs',

   /

 ATOMIC_SPECIES

 Mo  95.5     Mo.pw91-n-van.UPF

 S   32.065   S.pw91-van_ak.UPF

K_POINTS {automatic}
  3  3  1 0 0 0
  
CELL_PARAMETERS (angstrom)
   6.802699576398575E+00   0.000000000000000E+00   0.000000000000000E+00
  -3.394787588791375E+00   5.890004595273218E+00   0.000000000000000E+00
   3.810089763427484E+00  -1.638379474833872E+00   2.306106092219610E+01
  
ATOMIC_POSITIONS (angstrom)
   Mo   2.133435254201120E+00   5.936859117052889E-01   4.657194266982630E-02
   Mo   4.501047505028510E-01   3.492274529240930E+00   2.585589682641940E-01
   Mo   5.501444978351330E+00   5.499961424211920E-01  -8.699424518446970E-03
   Mo   3.859623554125470E+00   3.463331288526340E+00   2.670437919779710E-01
   Mo   2.251892961057930E+00   1.404023282798590E+00   1.702020299951770E+01
   Mo   6.503359665033490E-01   4.597536379969000E+00   1.686688321257800E+01
   Mo   5.786852655864280E+00   1.672891601191690E+00   1.718967080659160E+01
   Mo   3.992933404605650E+00   4.260424680919730E+00   1.685649929208830E+01
   Mo   5.408689158611369E-01   1.635582877428250E+00   6.082661645446040E+00
   Mo  -1.285464320052290E+00   4.372118738884680E+00   6.127298542386900E+00
   Mo   3.799441467227500E+00   1.403153083762990E+00   5.833970240798610E+00
   Mo   2.307539749371830E+00   4.504130244745620E+00   5.805504040785760E+00
    S   5.004668955246721E-01   1.720359329807330E+00   1.230231383804820E+00
    S  -1.294904423969760E+00   4.571836313248310E+00   1.152400701958640E+00
    S   3.896131539697740E+00   1.658925629376440E+00   1.164417388505350E+00
    S   2.085285524649980E+00   4.543695027866840E+00   1.153440262165140E+00
    S   4.047813190870280E+00   5.123847478039070E-01   1.798221702779030E+01
    S   2.447240654163260E+00   3.382834470936410E+00   1.795949098881930E+01
    S   7.483394240283360E+00   5.745169258494260E-01   1.804248187765860E+01
    S   5.711400816485540E+00   3.480083156731070E+00   1.806876444395580E+01
    S   3.802564512087470E+00  -4.483696475057570E-01   7.001856814007140E+00
    S   2.180377052346210E+00   2.541324283028510E+00   7.005308522729160E+00
    S   7.256107004232530E+00  -4.427114067407050E-01   7.028759118082050E+00
    S   5.546693153723660E+00   2.496584332714210E+00   7.030693816212290E+00
    S   2.546700601015670E+00   8.356106826507300E-01   2.214906383830320E+01
    S   8.053610428556840E-01   3.892247586505090E+00   2.219557503431130E+01
    S   5.958938030761530E+00   8.434208404414830E-01   2.211579377150600E+01
    S   4.235691995859970E+00   3.906433759888880E+00   2.208407213394610E+01
    S   5.731244497639350E+00  -5.494833913115810E-01   1.590178936545390E+01
    S   4.096919827750120E+00   2.483085598271630E+00   1.584969599308710E+01
    S   9.120694262982919E+00  -4.738667083657220E-01   1.587744556196260E+01
    S   7.353640578505130E+00   2.512604165762390E+00   1.597579946146550E+01
    S   2.096487869349710E+00   5.834756115213090E-01   4.948112584155350E+00
    S   4.687492627708400E-01   3.490662452207410E+00   4.989347374477050E+00
    S   5.533039965197650E+00   5.411661176162920E-01   4.966383272901610E+00
    S   3.892049088705270E+00   3.492042672795630E+00   4.886848957501400E+00
