 &control

     calculation = 'scf',

     restart_mode='from_scratch',

     tprnfor=.true.

     prefix='MoS2',

     outdir='./tmp',

     max_seconds = 84500

     disk_io = 'none'

     nstep= 12

     pseudo_dir = '~/pseudo/',

 /

 &system

    ibrav = 0,

    nat =  24
    ntyp = 2

    ecutwfc = 45 , ecutrho = 360,

    occupations='smearing', smearing='mv', degauss=0.02

/

  &electrons

     diagonalization='david',

     mixing_mode  =  'local-TF',

     mixing_beta = 0.7

   /

   &ions

     ion_dynamics = 'bfgs'

  /

   &cell

     cell_dynamics = 'bfgs',

   /

 ATOMIC_SPECIES

 Mo  95.5     Mo.pw91-n-van.UPF

 S   32.065   S.pw91-van_ak.UPF

K_POINTS {automatic}
  3  3  2 0 0 0
  
CELL_PARAMETERS (angstrom)
   6.464609786054910E+00   0.000000000000000E+00   0.000000000000000E+00
   8.750383862244213E-02   6.444913765678400E+00   0.000000000000000E+00
   1.032187057220300E+00   3.249182081928130E+00   1.162041236472680E+01
  
ATOMIC_POSITIONS (angstrom)
   Mo   3.779928185851020E+00   2.931147275823130E+00   1.165095154757840E+00
   Mo   5.546374909902400E-01   1.322244552355950E+00   3.950500400623770E+00
   Mo   6.911415634200870E+00   4.404341074255170E+00   9.332203341409199E+00
   Mo   6.514399093506870E-01   4.484814549025650E+00   2.630330502875380E-01
   Mo   6.940680133778180E+00   2.913900883505490E+00   6.791710415579490E+00
   Mo   5.483650579466590E-01   1.336537993896070E+00   2.554760411392250E-01
   Mo   6.092362475784170E-01   4.351254668062720E+00   3.827341395355550E+00
   Mo   7.068256321819540E+00   6.077625570100670E+00   6.744781788154670E+00
    S   2.094948880763730E+00   4.475312765382160E+00   7.643624999336530E+00
    S   5.543385792442950E+00   2.949014327466560E+00   4.681403348349100E+00
    S   5.497133188479890E+00   7.712907857496980E+00   7.626031379803330E+00
    S   5.601337773603450E+00   6.152657611790570E+00   4.789919962923550E+00
    S   2.272107314509020E+00   1.361345686759640E+00   2.087988549060890E+00
    S   2.299544846633690E+00   4.408775566387030E+00   2.152079174943950E+00
    S   5.268443812250190E+00   4.489434671008860E+00   7.488968660792120E+00
    S   2.187601515925300E+00   2.806310616686790E+00   4.857023300373250E+00
    S   6.428801188238160E+00   6.295978774669180E+00   1.084886225255160E+01
    S   3.050666447208480E+00   9.413545388664319E+00   1.077025694906510E+01
    S   1.913280676489010E+00   7.677441238986210E+00   7.781516748729000E+00
    S   2.077287661986440E+00   5.988385117583030E+00   4.854771653104370E+00
    S   3.268883447351550E+00   6.156106781070700E+00   1.089364586206870E+01
    S   5.424766981611380E+00   1.342783923081880E+00   1.992970990183390E+00
    S   6.475596476055380E+00   9.343522547201280E+00   1.098480040279260E+01
    S   5.506802096618240E+00   4.395854541030180E+00   2.124431849711790E+00
