 &control

     calculation = 'scf',

     restart_mode='from_scratch',

     tprnfor=.true.

     prefix='MoS2',

     outdir='./tmp',

     max_seconds = 84500

     disk_io = 'none'

     pseudo_dir = '~/pseudo/',

 /

 &system

    ibrav = 0,

    nat =  24
    ntyp = 2

    ecutwfc = 45 , ecutrho = 360,

    occupations='smearing', smearing='mv', degauss=0.02

/

  &electrons

     diagonalization='david',

     mixing_mode  =  'local-TF',

     mixing_beta = 0.7

   /

   &ions

     ion_dynamics = 'bfgs'

  /

   &cell

     cell_dynamics = 'bfgs',

   /

 ATOMIC_SPECIES

 Mo  95.5     Mo.pw91-n-van.UPF

 S   32.065   S.pw91-van_ak.UPF

K_POINTS {automatic}
  3  6  1 0 0 0
  
CELL_PARAMETERS (angstrom)
   6.739041372439790E+00   0.000000000000000E+00   0.000000000000000E+00
  -1.600760101505291E+00   2.833691952561972E+00   0.000000000000000E+00
  -3.757819858981242E-01  -1.236436966030589E+00   2.299271308036885E+01
  
ATOMIC_POSITIONS (angstrom)
   Mo   1.096647312326310E+00   1.442962791502930E+00   2.866591210790970E+00
   Mo  -5.149034625998080E-01   1.107285315174370E+00   1.413103375132950E+01
   Mo   4.354532388150270E+00   1.537862132992400E+00   3.136329345334500E+00
   Mo   2.878284619863340E+00   9.555131786791690E-01   1.501076403225830E+01
   Mo   1.029795226112680E+00   5.602878460496460E-01   8.688401160359900E+00
   Mo   1.041320117170740E+00  -2.026738026851140E-01   2.029964777811790E+01
   Mo   4.613330753952050E+00   5.563715936761340E-01   8.035048190013841E+00
   Mo   4.680460540301720E+00  -2.805418596780210E-01   1.988486090286080E+01
    S   2.292638386268490E+00   2.841401917360680E-01   3.940692883325260E+00
    S   1.226734982952320E+00  -2.493405560057520E-01   1.555883581891410E+01
    S   5.547607886302440E+00   2.965166592547780E-01   4.271857165536480E+00
    S   4.284973662775850E+00  -1.164026813090570E-01   1.600711402086770E+01
    S  -6.062395026380920E-01   1.212892285937000E+00   9.641501545747470E+00
    S  -6.846809759911450E-01   4.816712599632050E-01   2.129476228942860E+01
    S   2.703640686111160E+00   1.442677076860180E+00   9.377677400626910E+00
    S   2.523359912925570E+00   9.012147866660760E-01   2.110967713130050E+01
    S   2.698758508462010E+00   2.015696512633500E+00   1.880224706829930E+00
    S   1.033235089351640E+00   1.305536376028390E-01   1.312095812590090E+01
    S   6.040319713772660E+00   1.592389435595840E+00   1.939686118245630E+00
    S   4.315042339355800E+00   5.361064202650631E-01   1.356978051595380E+01
    S  -3.972224559277240E-01   1.797106007476900E+00   7.326467938931770E+00
    S   1.103550031928190E-02   9.978027928438440E-01   1.902405354696310E+01
    S   3.287870433175900E+00   1.750623102873510E+00   6.963518301450970E+00
    S   3.563979402811220E+00   1.128298460685240E+00   1.875124903374560E+01
