 &control

     calculation = 'scf',

     restart_mode='from_scratch',

     tprnfor=.true.

     prefix='MoS2',

     outdir='./tmp',

     max_seconds = 84500

     disk_io = 'none'

     pseudo_dir = '~/pseudo/',

 /

 &system

    ibrav = 0,

    nat =  24
    ntyp = 2

    ecutwfc = 45 , ecutrho = 360,

    occupations='smearing', smearing='mv', degauss=0.02

/

  &electrons

     diagonalization='david',

     mixing_mode  =  'local-TF',

     mixing_beta = 0.7

   /

   &ions

     ion_dynamics = 'bfgs'

  /

   &cell

     cell_dynamics = 'bfgs',

   /

 ATOMIC_SPECIES

 Mo  95.5     Mo.pw91-n-van.UPF

 S   32.065   S.pw91-van_ak.UPF

K_POINTS {automatic}
  3  6  1 0 0 0
  
CELL_PARAMETERS (angstrom)
   6.745347628449449E+00   0.000000000000000E+00   0.000000000000000E+00
  -1.710914210168103E+00   2.950924767290401E+00   0.000000000000000E+00
  -2.774605569891706E-01  -9.807896222113094E+00   2.390559093810998E+01
  
ATOMIC_POSITIONS (angstrom)
   Mo   3.090882495538230E+00   3.254585650735660E-01   3.189384830074380E+00
   Mo  -1.538579457779000E+00  -5.058809471748430E+00   1.602535653596340E+01
   Mo   6.285277316792860E+00   5.978408882445790E-01   3.265172356626780E+00
   Mo   1.762809672547680E+00  -4.998867646610160E+00   1.521756396817940E+01
   Mo   4.114292388534650E-01  -2.051755639749190E+00   8.298796365526851E+00
   Mo   9.085890719067050E-01  -7.081355171145300E+00   2.087188921895420E+01
   Mo   3.848136847217540E+00  -2.193463888620920E+00   8.096437418311719E+00
   Mo   4.303709164555620E+00  -7.090550271813740E+00   2.070574132135940E+01
    S   4.636440712931810E+00   1.391184706667220E+00   4.339532690532010E+00
    S   1.355521888374270E-01  -4.186295839357300E+00   1.664184577461240E+01
    S   8.102761019247730E+00   1.564589634079470E+00   4.198071848411500E+00
    S   3.325610677166810E+00  -4.050174669932600E+00   1.665541563984380E+01
    S  -1.169958180283540E+00  -1.122977887894110E+00   9.238860838529259E+00
    S  -9.048701671344240E-01  -5.985669967812170E+00   2.186283501392970E+01
    S   2.186842277250530E+00  -1.098349904072350E+00   9.181853942573410E+00
    S   2.655126540686370E+00  -5.876883288452270E+00   2.176069350949380E+01
    S   4.609165483712840E+00  -4.585010343367790E-01   2.163105701195400E+00
    S   8.185761709122590E-02  -6.243595137126390E+00   1.472529461041990E+01
    S   7.875277711336800E+00  -4.751346729380220E-01   2.256448869414550E+00
    S   3.295672323249740E+00  -5.971562404789700E+00   1.438918088236310E+01
    S  -1.070686580395160E+00  -3.156858649742990E+00   7.142748825957000E+00
    S  -6.289160180606920E-01  -7.897770308315900E+00   1.970134602526320E+01
    S   2.263653130817300E+00  -3.144461657117230E+00   7.152644241968720E+00
    S   2.573528345033840E+00  -7.896076923327200E+00   1.973889256527200E+01
