 &control

     calculation = 'relax',

     restart_mode='from_scratch',

     tprnfor=.true.

     prefix='MoS2',

     outdir='./tmp',

     max_seconds = 84500

     disk_io = 'none'

     pseudo_dir = '~/pseudo/',

     nstep= 4

 /

 &system

    ibrav = 0,

    nat =  24
    ntyp = 2

    ecutwfc = 45 , ecutrho = 360,

    occupations='smearing', smearing='mv', degauss=0.02

/

  &electrons

     diagonalization='david',

     mixing_mode  =  'local-TF',

     mixing_beta = 0.7

   /

   &ions

     ion_dynamics = 'bfgs'

  /

   &cell

     cell_dynamics = 'bfgs',

   /

 ATOMIC_SPECIES

 Mo  95.5     Mo.pw91-n-van.UPF

 S   32.065   S.pw91-van_ak.UPF

K_POINTS {automatic}
  3  3  1 0 0 0
  
CELL_PARAMETERS (angstrom)
   6.428969266849100E+00   0.000000000000000E+00   0.000000000000000E+00
  -3.212373587234320E+00   5.598187891670520E+00   0.000000000000000E+00
  -9.124053264718360E-01  -2.030240713580460E+00   1.938675466531080E+01
  
ATOMIC_POSITIONS (angstrom)
   Mo   1.350628817497130E+00   4.110936888875580E+00   3.805963156186900E+00
   Mo  -1.841896938677310E+00   4.100589029139270E+00   3.819695873646610E+00
   Mo   2.868118348074890E+00   1.388328074548030E+00   3.771503079214450E+00
   Mo  -3.112962487547960E-01   1.385902156924330E+00   3.759265360709060E+00
   Mo   1.025446780882980E+00  -5.886974723180110E-01   1.561825599579530E+01
   Mo   4.187896293228170E+00  -6.089359944185890E-01   1.562428748233270E+01
   Mo  -6.663990747424440E-01   2.287338541649340E+00   1.569382590843990E+01
   Mo   2.559743218698030E+00   2.244605480656120E+00   1.568759181650130E+01
    S   1.291423572517380E+00   2.305551253865820E+00   2.153312092710040E+00
    S   4.508245726910720E+00   2.279762949496040E+00   2.179238473085460E+00
    S  -2.430878134849370E-01   5.080647772321710E+00   2.239891870706770E+00
    S   2.986293960535600E+00   5.052371662814870E+00   2.249762341669810E+00
    S  -6.013066511112229E-01  -1.474138346880200E+00   1.721291007634920E+01
    S   2.601382448386260E+00  -1.493718468581260E+00   1.727110564941660E+01
    S  -2.258311152507520E+00   1.243773868303070E+00   1.722687661724040E+01
    S   9.460398567297710E-01   1.262449770846020E+00   1.722498712076960E+01
    S  -3.817948969685440E+00   4.069099246214160E+00   1.406839872005040E+01
    S  -6.098239690950820E-01   4.089752113918920E+00   1.401595814520940E+01
    S  -2.251125237720450E+00   1.310649473726460E+00   1.412306390356740E+01
    S   9.276931053702930E-01   1.333916447882440E+00   1.412130798727400E+01
    S   1.262787003862340E+00   2.285466243036470E+00   5.394549214654770E+00
    S   4.487573732806590E+00   2.251269009017130E+00   5.366190380482340E+00
    S   2.965302347504050E+00  -4.826685379930660E-01   5.342451202921940E+00
    S  -2.671108912557880E-01  -4.784529382838820E-01   5.338267250946360E+00
