 &control

     calculation = 'scf',

     restart_mode='from_scratch',

     tprnfor=.true.

     prefix='MoS2',

     outdir='./tmp',

     max_seconds = 84500

     disk_io = 'none'

     pseudo_dir = '~/pseudo/',

 /

 &system

    ibrav = 0,

    nat =  36
    ntyp = 2

    ecutwfc = 45 , ecutrho = 360,

    occupations='smearing', smearing='mv', degauss=0.02

/

  &electrons

     diagonalization='david',

     mixing_mode  =  'local-TF',

     mixing_beta = 0.7

   /

   &ions

     ion_dynamics = 'bfgs'

  /

   &cell

     cell_dynamics = 'bfgs',

   /

 ATOMIC_SPECIES

 Mo  95.5     Mo.pw91-n-van.UPF

 S   32.065   S.pw91-van_ak.UPF

K_POINTS {automatic}
  3  3  1 0 0 0
  
CELL_PARAMETERS (angstrom)
   6.914138588144419E+00   0.000000000000000E+00   0.000000000000000E+00
  -3.360384764600615E+00   5.911720859866883E+00   0.000000000000000E+00
   2.125747612409327E+00  -4.334483749509331E-01   2.173308418909186E+01
  
ATOMIC_POSITIONS (angstrom)
   Mo   2.577319059501070E+00   8.234055967060440E-01  -9.732192864873040E-02
   Mo   4.491093716543330E-01   3.540693646041320E+00   8.492969020882141E-02
   Mo   5.886984210824940E+00   8.184775422367020E-01  -1.170454554772200E-01
   Mo   3.854226043733920E+00   3.678300227454770E+00   6.100865135304170E-01
   Mo   1.281291729200350E+00   2.416456923560060E+00   1.671541239089070E+01
   Mo  -6.563277944396519E-01   4.858077658991730E+00   1.601155519741390E+01
   Mo   4.401198545565030E+00   2.071786080947210E+00   1.643754817577270E+01
   Mo   3.129614118145490E+00   5.468699530700090E+00   1.601515745650020E+01
   Mo  -5.727685680836030E-02   1.587863173524650E+00   4.752164449456210E+00
   Mo  -1.563521044691760E+00   5.124501342294800E+00   5.667888809540110E+00
   Mo   3.553251572158220E+00   2.324286648501220E+00   5.944143866002800E+00
   Mo   1.503150651872360E+00   4.727673907857980E+00   5.126169295087090E+00
    S   4.347799785516770E-01   1.505777069221710E+00   9.266027114472630E-01
    S  -1.235048932991830E+00   4.346053844126360E+00   1.285027512455680E+00
    S   4.012013562171960E+00   1.597045953361370E+00   1.047583601807620E+00
    S   2.013158346930430E+00   4.341023850605750E+00   1.269814939123160E+00
    S   2.937618766020820E+00   1.393672790875460E+00   1.757222740521070E+01
    S   1.040783573636160E+00   4.242137445036600E+00   1.732660840331960E+01
    S   6.403513940706420E+00   1.233444770084340E+00   1.721134577683000E+01
    S   4.616530623767120E+00   4.296626556968780E+00   1.714277126759450E+01
    S   3.511977919737720E+00   7.691319422314240E-02   6.461786280190310E+00
    S   1.859222533309450E+00   3.232047976394540E+00   6.600771503320200E+00
    S   7.101371457284830E+00   2.733079997429670E-01   6.341355211015450E+00
    S   5.350143482999360E+00   3.023059248649170E+00   6.514319654710950E+00
    S   6.926752807233070E-01   2.125722047482970E+00   2.067662860157120E+01
    S  -8.504758473668130E-01   4.868254160743110E+00   2.082677329197890E+01
    S   4.196354567737530E+00   2.178135416600200E+00   2.071090737877360E+01
    S   2.613388563793130E+00   5.000898184025030E+00   2.064814189318080E+01
    S   4.445281305185780E+00   2.296121657414010E-01   1.523526840786280E+01
    S   2.850615559663770E+00   3.178437383605430E+00   1.532370445146900E+01
    S   8.102509440120670E+00   2.636221532963420E-01   1.508572266052420E+01
    S   6.254241648421730E+00   3.100393815645220E+00   1.514431651551200E+01
    S   1.780058571432910E+00   8.978576829574060E-01   4.224662612232760E+00
    S  -9.371603273411069E-02   3.765810005142650E+00   4.264113321291390E+00
    S   5.128261450671620E+00   6.849203372466500E-01   4.199278320534130E+00
    S   3.374001065140880E+00   3.949252615856450E+00   4.538370364372520E+00
