 &control

     calculation = 'scf',

     restart_mode='from_scratch',

     tprnfor=.true.

     prefix='MoS2',

     outdir='./tmp',

     max_seconds = 84500

     disk_io = 'none'

     pseudo_dir = '~/pseudo/',

 /

 &system

    ibrav = 0,

    nat =  36
    ntyp = 2

    ecutwfc = 45 , ecutrho = 360,

    occupations='smearing', smearing='mv', degauss=0.02

/

  &electrons

     diagonalization='david',

     mixing_mode  =  'local-TF',

     mixing_beta = 0.7

   /

   &ions

     ion_dynamics = 'bfgs'

  /

   &cell

     cell_dynamics = 'bfgs',

   /

 ATOMIC_SPECIES

 Mo  95.5     Mo.pw91-n-van.UPF

 S   32.065   S.pw91-van_ak.UPF

K_POINTS {automatic}
  3  3  1 0 0 0
  
CELL_PARAMETERS (angstrom)
   6.772506276494232E+00   0.000000000000000E+00   0.000000000000000E+00
  -3.209709263616688E+00   5.972447173046005E+00   0.000000000000000E+00
   1.834716389705946E+00  -1.010425423957887E+00   2.156637886809584E+01
  
ATOMIC_POSITIONS (angstrom)
   Mo   2.354806896109090E+00   8.339196836973640E-01  -9.916485691209841E-02
   Mo   4.632361191300490E-01   3.708292017183380E+00   7.796683345539780E-03
   Mo   5.673524797150900E+00   8.069783064395950E-01  -1.311766005521760E-01
   Mo   3.862269600879080E+00   3.817079178051710E+00   2.578291539391600E-01
   Mo   1.075746945968900E+00   1.708746384466540E+00   1.649593311338310E+01
   Mo  -6.869988980264810E-01   4.450348225664350E+00   1.615908141827230E+01
   Mo   4.281515893935310E+00   1.542477433458100E+00   1.636401882002370E+01
   Mo   2.847495303116230E+00   4.727364842212820E+00   1.616838063118370E+01
   Mo  -2.133163166293940E-02   1.751142602659520E+00   4.982032661565270E+00
   Mo  -1.602807014912780E+00   5.060022779860220E+00   5.376498302546760E+00
   Mo   3.415282798530280E+00   2.164519363593880E+00   5.535459791428630E+00
   Mo   1.617187162133590E+00   4.848751477696350E+00   5.160414711583960E+00
    S   4.549009703976750E-01   1.637806151017810E+00   1.011229306648680E+00
    S  -1.170291116064130E+00   4.515805609191890E+00   1.067730722443050E+00
    S   3.835277626207260E+00   1.622328170144930E+00   1.053208561312370E+00
    S   2.150883060365320E+00   4.538631181519190E+00   1.104253638700670E+00
    S   2.620169260243860E+00   7.061114520405150E-01   1.737873560838420E+01
    S   9.652489944414280E-01   3.604638477220860E+00   1.731810467364620E+01
    S   5.994072064559130E+00   6.325103886077560E-01   1.730976755514910E+01
    S   4.355506527568940E+00   3.674977100369130E+00   1.730360758876200E+01
    S   3.347052268291370E+00   1.471486888452610E-03   6.347978758738410E+00
    S   1.797558171533720E+00   3.014892685631300E+00   6.358547557820500E+00
    S   6.840037278424450E+00   2.447061010312060E-02   6.308985831555450E+00
    S   5.158562932863420E+00   2.956585600537490E+00   6.318004203876800E+00
    S   5.687388235133400E-01   1.631524407274060E+00   2.049803648111680E+01
    S  -1.052641901960010E+00   4.610520678580280E+00   2.059558142827950E+01
    S   3.996025099816690E+00   1.656700445386500E+00   2.051815935352890E+01
    S   2.348465933419500E+00   4.596135129890030E+00   2.053675837658840E+01
    S   4.271263100198960E+00  -3.582898071496840E-01   1.525541120027220E+01
    S   2.676320201514030E+00   2.606084632249610E+00   1.526988711194230E+01
    S   7.674420604301290E+00  -3.561136782394200E-01   1.523546733529120E+01
    S   6.008761116894470E+00   2.652289461266970E+00   1.525244179626970E+01
    S   1.713754010692320E+00   9.751173172038800E-01   4.225404675910890E+00
    S   7.431707378279540E-02   3.952631303961560E+00   4.221020330195100E+00
    S   5.077783392367630E+00   8.984833218725780E-01   4.201929652739130E+00
    S   3.457819583846440E+00   3.977149647044680E+00   4.299242562877860E+00
