 &control

     calculation = 'scf',

     restart_mode='from_scratch',

     tprnfor=.true.

     prefix='MoS2',

     outdir='./tmp',

     max_seconds = 84500

     disk_io = 'none'

     pseudo_dir = '~/pseudo/',

 /

 &system

    ibrav = 0,

    nat =  24
    ntyp = 2

    ecutwfc = 45 , ecutrho = 360,

    occupations='smearing', smearing='mv', degauss=0.02

/

  &electrons

     diagonalization='david',

     mixing_mode  =  'local-TF',

     mixing_beta = 0.7

   /

   &ions

     ion_dynamics = 'bfgs'

  /

   &cell

     cell_dynamics = 'bfgs',

   /

 ATOMIC_SPECIES

 Mo  95.5     Mo.pw91-n-van.UPF

 S   32.065   S.pw91-van_ak.UPF

K_POINTS {automatic}
  3  3  2 0 0 0
  
CELL_PARAMETERS (angstrom)
   6.501857224504840E+00   0.000000000000000E+00   0.000000000000000E+00
  -3.341282380230648E+00   5.575036836165960E+00   0.000000000000000E+00
  -4.490955881315699E-02  -1.413717013028262E-01   1.016654018480443E+01
  
ATOMIC_POSITIONS (angstrom)
   Mo   2.293602820913120E-02  -1.050758737026190E-01   7.544861096048120E+00
   Mo  -1.691201712629860E+00   2.670289493384970E+00   7.467719378487400E+00
   Mo   3.261342434075130E+00  -1.152788325592820E-01   7.636932107986130E+00
   Mo   1.556864945508490E+00   2.675157629024090E+00   7.867635983471910E+00
   Mo  -3.416004722347280E-02  -1.554142327284640E-02   2.689418424738620E+00
   Mo  -1.714142019003900E+00   2.765405947860890E+00   2.479069529005370E+00
   Mo   3.215048136002600E+00  -2.443715026760630E-02   2.591392706974110E+00
   Mo   1.534803634837620E+00   2.769874254728480E+00   2.382186557251730E+00
    S   1.598969771422560E+00   6.931452191373040E-01   8.897737395296600E+00
    S  -1.794979177276490E-02   3.524499816902430E+00   8.917656791622530E+00
    S   4.843417243044400E+00   7.534816094323390E-01   8.869281561540840E+00
    S   3.070886383698800E+00   3.506126951824870E+00   8.895452248507150E+00
    S  -8.309460116503320E-02   1.805839940550780E+00   1.267716840334390E+00
    S  -1.735489289747620E+00   4.556784402447390E+00   1.279697167501250E+00
    S   3.109456983154250E+00   1.859848991354830E+00   1.252496501220270E+00
    S   1.451497084216020E+00   4.571283864358950E+00   1.286812326324370E+00
    S   1.163161608982610E-02   1.846886778460270E+00   3.802869814208740E+00
    S  -1.723293097663510E+00   4.633413859720370E+00   3.815339572881250E+00
    S   3.305631308697380E+00   1.767974717331960E+00   3.780427108744190E+00
    S   1.593088783398950E+00   4.668512724176360E+00   3.820082995049450E+00
    S   1.524383191030300E+00   9.215084494616400E-01   6.371198085229540E+00
    S  -1.421466881024290E-01   3.718179775410090E+00   6.386931669554720E+00
    S   4.822922556015080E+00   8.940215544082830E-01   6.335505473890020E+00
    S   3.275450938550450E+00   3.676198067697890E+00   6.367005837038830E+00
