 &control

     calculation = 'scf',

     restart_mode='from_scratch',

     tprnfor=.true.

     prefix='MoS2',

     outdir='./tmp',

     max_seconds = 84500

     disk_io = 'none'

     pseudo_dir = '~/pseudo/',

 /

 &system

    ibrav = 0,

    nat =  24
    ntyp = 2

    ecutwfc = 45 , ecutrho = 360,

    occupations='smearing', smearing='mv', degauss=0.02

/

  &electrons

     diagonalization='david',

     mixing_mode  =  'local-TF',

     mixing_beta = 0.7

   /

   &ions

     ion_dynamics = 'bfgs'

  /

   &cell

     cell_dynamics = 'bfgs',

   /

 ATOMIC_SPECIES

 Mo  95.5     Mo.pw91-n-van.UPF

 S   32.065   S.pw91-van_ak.UPF

K_POINTS {automatic}
  3  3  2 0 0 0
  
CELL_PARAMETERS (angstrom)
   6.869972156627804E+00   0.000000000000000E+00   0.000000000000000E+00
  -3.069626603823197E+00   5.746269470066315E+00   0.000000000000000E+00
  -1.403702097455215E+00  -1.178032868665796E+00   1.112669487126491E+01
  
ATOMIC_POSITIONS (angstrom)
   Mo   1.794364953168750E-01   1.604060530682110E+00   3.584919187417190E+00
   Mo  -1.055434469894170E+00   4.488363907936790E+00   2.329973208483730E+00
   Mo   3.885034081166620E+00   1.483260782572810E+00   2.407229750405510E+00
   Mo   2.286311775178150E+00   4.090598385458480E+00   3.195924343719740E+00
   Mo  -2.973465056603730E-01  -3.033627806123960E-01   7.987555457044090E+00
   Mo  -1.448569850133220E+00   2.709957412266520E+00   7.839347743239290E+00
   Mo   3.255246697015260E+00   8.232858669530881E-02   8.519294874182130E+00
   Mo   1.769347849548130E+00   2.791042774596600E+00   8.504167094890310E+00
    S   5.004423061417810E-01  -8.147825400408309E-01   3.673846546557450E+00
    S   4.521225109338750E-01   3.912691158054000E+00   4.126257849517480E+00
    S   5.188873528081230E+00   5.051455690832600E-01   3.962251604689160E+00
    S   2.748435752822860E+00   2.376671144962350E+00   4.027162333244840E+00
    S  -1.753079234542100E+00   7.353351341418130E-01   8.917992056781650E+00
    S  -3.574779413862290E+00   3.795667870419770E+00   9.187008340488410E+00
    S   1.667626460294200E+00   9.212295347443050E-01   9.552810140141419E+00
    S  -1.543088274129220E-01   3.666544284100880E+00   9.388650523169160E+00
    S   1.638937094104250E+00   9.113671979726560E-01   2.263077765365740E+00
    S   8.338789840244050E-01   4.961542814195650E+00   1.623361766781310E+00
    S   6.145269683165350E+00   2.322482860140150E+00   1.966428189156410E+00
    S   3.668236174899620E+00   3.337557649333700E+00   1.659817305425060E+00
    S   2.557930521967820E-01   1.654714628579370E+00   7.144728206763780E+00
    S  -1.581074488782220E+00   4.583111927770430E+00   7.099888088674360E+00
    S   3.375628041361160E+00   1.900706995767950E+00   7.477599914711180E+00
    S   1.786241517076500E+00   4.429300193998160E+00   7.219413990007180E+00
