 &control

     calculation = 'scf',

     restart_mode='from_scratch',

     tprnfor=.true.

     prefix='MoS2',

     outdir='./tmp',

     max_seconds = 84500

     disk_io = 'none'

     pseudo_dir = '~/pseudo/',

 /

 &system

    ibrav = 0,

    nat =  36
    ntyp = 2

    ecutwfc = 45 , ecutrho = 360,

    occupations='smearing', smearing='mv', degauss=0.02

/

  &electrons

     diagonalization='david',

     mixing_mode  =  'local-TF',

     mixing_beta = 0.7

   /

   &ions

     ion_dynamics = 'bfgs'

  /

   &cell

     cell_dynamics = 'bfgs',

   /

 ATOMIC_SPECIES

 Mo  95.5     Mo.pw91-n-van.UPF

 S   32.065   S.pw91-van_ak.UPF

K_POINTS {automatic}
  3  3  1 0 0 0
  
CELL_PARAMETERS (angstrom)
   6.699889000076603E+00   0.000000000000000E+00   0.000000000000000E+00
  -3.356207372736224E+00   5.823262195731036E+00   0.000000000000000E+00
  -3.349921879744315E+00  -2.789415930769368E+00   1.689325934571182E+01
  
ATOMIC_POSITIONS (angstrom)
   Mo   1.079859531980590E+00   9.018271972874100E-01   5.158267749967070E+00
   Mo  -6.925210644655601E-01   3.768451237473200E+00   5.180073783255640E+00
   Mo   4.385187659612440E+00   7.054742812945770E-01   5.601581092688240E+00
   Mo   2.523008700604600E+00   3.198938291908940E+00   6.510540189130530E+00
   Mo  -2.118500481771660E+00  -8.491005146939620E-01   1.127997781530380E+01
   Mo  -3.765477963858040E+00   2.133523054015670E+00   1.102934782696890E+01
   Mo   1.310473627943450E+00  -6.784198705183681E-01   1.164742711704050E+01
   Mo  -4.179658043426330E-01   2.221350652229800E+00   1.070427276214650E+01
   Mo  -3.792845621282220E+00  -2.940814929364300E+00   1.633430264486190E+01
   Mo  -5.829862779403300E+00  -4.713607168995960E-02   1.772326035341750E+01
   Mo  -7.754365142011340E-01  -3.080625820737250E+00   1.763492732662730E+01
   Mo  -2.053269247163720E+00  -1.121726521920360E-01   1.647826537406650E+01
    S  -8.572401862146050E-01   1.535825119036430E+00   7.268904228650470E-01
    S  -2.402871293586480E+00   4.729174339039930E+00   1.753403959996120E+00
    S   2.565397287425600E+00   1.722282146535700E+00   1.595148994601740E+00
    S   8.400327407339380E-01   4.384476671675210E+00   9.094663486357190E-01
    S  -6.976864069274210E-01   1.036089648335980E+00   4.362087845913860E+00
    S  -2.502748480033250E+00   3.152531008778960E+00   4.734502271299730E+00
    S   2.769091721452040E+00  -8.072595906652960E-05   4.143426099984430E+00
    S   1.366118857877570E+00   3.074435330832730E+00   4.717203829556650E+00
    S  -1.246764350336350E+00  -6.713171132129579E-01   6.621475710898410E+00
    S  -2.563391953633530E+00   1.970317504680640E+00   7.006791850795090E+00
    S   2.206561138416280E+00  -6.833040731910400E-01   6.414390369308680E+00
    S   8.280239192765290E-01   2.118521342164020E+00   6.881898635859840E+00
    S  -7.383152640776020E-01  -1.889388891710870E+00   1.007939683799720E+01
    S  -2.069928850402600E+00   9.492494455228629E-01   1.020746710788140E+01
    S   2.790991649092730E+00  -1.725932356090880E+00   1.009947557259050E+01
    S   1.378338175924660E+00   8.057872086720470E-01   1.026434254996300E+01
    S  -5.060105360152750E-01   6.227990013822050E-02   1.238515339971530E+01
    S  -2.105027622396120E+00   3.240783997465140E+00   1.199949007029860E+01
    S   2.933883888520890E+00   4.912743476947610E-01   1.223467049383910E+01
    S   9.985732060053100E-01   3.145113392247340E+00   1.199304404525560E+01
    S  -2.866569939556780E+00  -1.501366315321690E+00   1.530458867535770E+01
    S  -5.237865041937540E+00   1.635068013366830E+00   1.630119263449830E+01
    S  -5.053764702160210E-02  -1.071784787057990E+00   1.619271587467030E+01
    S  -1.430589645062900E+00   1.437870250309810E+00   1.535131655837930E+01
