 &control

     calculation = 'scf',

     restart_mode='from_scratch',

     tprnfor=.true.

     prefix='MoS2',

     outdir='./tmp',

     max_seconds = 84500

     disk_io = 'none'

     nstep= 25

     pseudo_dir = '~/pseudo/',

 /

 &system

    ibrav = 0,

    nat =  36
    ntyp = 2

    ecutwfc = 45 , ecutrho = 360,

    occupations='smearing', smearing='mv', degauss=0.02

/

  &electrons

     diagonalization='david',

     mixing_mode  =  'local-TF',

     mixing_beta = 0.7

   /

   &ions

     ion_dynamics = 'bfgs'

  /

   &cell

     cell_dynamics = 'bfgs',

   /

 ATOMIC_SPECIES

 Mo  95.5     Mo.pw91-n-van.UPF

 S   32.065   S.pw91-van_ak.UPF

K_POINTS {automatic}
  3  2  1 0 0 0
  
CELL_PARAMETERS (angstrom)
   6.217477681486980E+00   0.000000000000000E+00   0.000000000000000E+00
  -1.259319095464720E-01   1.179784539181840E+01   0.000000000000000E+00
  -2.819804686557150E-01   3.689794788019170E+00   4.372849469038950E+01
  
ATOMIC_POSITIONS (angstrom)
   Mo  -1.878649270816570E-01   1.355653060243860E+01   3.221448651250900E+01
   Mo   1.362910839814790E+00   1.074259736576300E+01   3.175797712173190E+01
   Mo   2.920754461984970E+00   1.355637580998840E+01   3.221456176723270E+01
   Mo   4.471842329264850E+00   1.074439106966730E+01   3.175797457297640E+01
   Mo   2.903352188999450E+00   8.032399174354479E+00   3.128851383707350E+01
   Mo   6.021302436103480E+00   8.033157885940010E+00   3.128854383268270E+01
   Mo   4.585267790494610E+00   4.289725823105120E+00   3.258031103221960E+01
   Mo   1.476596066504210E+00   4.293099622433610E+00   3.258045958415780E+01
   Mo   5.680271421928150E+00   8.922549864114020E+00   4.045282738410970E+01
   Mo   2.574652493931180E+00   8.924016413265679E+00   4.045167652114050E+01
   Mo   4.897230202708140E+00   5.177050827226520E+00   8.101380331724309E+00
   Mo   1.786240217196950E+00   5.177891238274890E+00   8.108187206547800E+00
    S   1.367976107543960E+00   1.234296687498500E+01   3.362713721577820E+01
    S  -7.058800991103260E-02   3.393686911963330E+00   3.415638441442600E+01
    S   4.476890311521070E+00   1.234365621467550E+01   3.362716737114600E+01
    S   3.036459044684760E+00   3.393543159971430E+00   3.415633967259960E+01
    S   3.136242216690830E+00   3.666393990217580E+00   8.867355895317001E+00
    S   4.448171635212760E-01   4.413024488030630E+00   6.592772420712920E+00
    S   1.367750437264040E+00   1.284582237669440E+01   3.050628354456230E+01
    S  -7.449272100804161E-02   3.861778252540280E+00   3.085640061424730E+01
    S   4.476511504565580E+00   1.284731774934990E+01   3.050646061416360E+01
    S   3.033123112465770E+00   3.861255829680180E+00   3.085626785870980E+01
    S   3.133136196721900E+00   6.692377352666830E+00   7.350068735834440E+00
    S   4.352585582567730E-01   5.937196159762680E+00   9.619721390166539E+00
    S   2.917750786597920E+00   9.505958498698810E+00   3.315668640215710E+01
    S  -1.923000931771060E-01   9.506340641640641E+00   3.315763725849880E+01
    S   2.916282527649710E+00   1.003986162671360E+01   3.003937986390630E+01
    S  -1.930541094966890E-01   1.004043896434220E+01   3.003920986794220E+01
    S   4.458214428102640E+00   7.271521900922850E+00   2.967310154314090E+01
    S   1.349111372128920E+00   7.234662948185610E+00   2.968864308336480E+01
    S   4.125896280112630E+00   9.132788139118709E+00   4.220678827871220E+01
    S   1.020537032167740E+00   7.170998228662550E+00   4.063729095088030E+01
    S   4.468781204726620E+00   6.643322506077510E+00   3.268629332209680E+01
    S   1.359411608766500E+00   6.644258462179990E+00   3.271258885677140E+01
    S   4.128701645883720E+00   8.709367719915440E+00   3.869879299353740E+01
    S   1.016942241210960E+00   1.067160966977370E+01   4.022812791045510E+01
