 &control

     calculation = 'scf',

     restart_mode='from_scratch',

     tprnfor=.true.

     prefix='MoS2',

     outdir='./tmp',

     max_seconds = 84500

     disk_io = 'none'

     pseudo_dir = '~/pseudo/',

 /

 &system

    ibrav = 0,

    nat =  24
    ntyp = 2

    ecutwfc = 45 , ecutrho = 360,

    occupations='smearing', smearing='mv', degauss=0.02

/

  &electrons

     diagonalization='david',

     mixing_mode  =  'local-TF',

     mixing_beta = 0.7

   /

   &ions

     ion_dynamics = 'bfgs'

  /

   &cell

     cell_dynamics = 'bfgs',

   /

 ATOMIC_SPECIES

 Mo  95.5     Mo.pw91-n-van.UPF

 S   32.065   S.pw91-van_ak.UPF

K_POINTS {automatic}
  3  6  1 0 0 0
  
CELL_PARAMETERS (angstrom)
   6.226190100000000E+00   0.000000000000000E+00   0.000000000000000E+00
  -1.556547525000000E+00   2.696019300000000E+00   0.000000000000000E+00
   0.000000000000000E+00   0.000000000000000E+00   2.726639760000000E+01
  
ATOMIC_POSITIONS (angstrom)
   Mo   5.534983208084380E-02   8.301817282064319E-02   1.023156086178980E+01
   Mo   9.146737270504821E-02  -1.216753407321340E-02   2.389664230095540E+01
   Mo   3.193350415740870E+00  -4.982002069270110E-02   1.019208078486990E+01
   Mo   3.131776320992860E+00   9.048183939825860E-02   2.381983503480150E+01
   Mo   6.696833971065280E-02  -5.051565553754930E-02   3.462736911739860E+00
   Mo  -7.288122589090210E-02  -6.767866705555270E-02   1.703110980719370E+01
   Mo   3.059407082032680E+00   6.060289838408770E-02   3.466992892134930E+00
   Mo   3.073778581882130E+00  -1.439316505537020E-02   1.713231178170720E+01
    S   1.655242389800470E+00   8.960416914401840E-01   1.176783696106200E+01
    S   1.566312296794160E+00   9.153221075024610E-01   2.548325848654700E+01
    S   4.707604423223860E+00   8.421340808007540E-01   1.167871126415860E+01
    S   4.754768093283670E+00   9.011479896195740E-01   2.533271957776040E+01
    S   1.543591761908890E-02   1.815002186348100E+00   1.784047716325210E+00
    S   7.042331671512490E-02   1.772537482982450E+00   1.558097685757980E+01
    S   3.168695190727660E+00   1.728617337764600E+00   1.927999202292030E+00
    S   3.190580767290710E+00   1.746774504891310E+00   1.547653478318830E+01
    S   3.979266217725030E-03   1.809975357553600E+00   5.034460188842050E+00
    S   6.872108859073769E-02   1.861276999737740E+00   1.853404068477220E+01
    S   3.046688077233430E+00   1.749649637604140E+00   4.992919070969720E+00
    S   3.147117627094410E+00   1.703636233037070E+00   1.856075280967350E+01
    S   1.550206150364200E+00   8.951623679716439E-01   8.797595030959620E+00
    S   1.493109209733300E+00   8.225386414323570E-01   2.234443840496130E+01
    S   4.708901714414620E+00   9.366367731125280E-01   8.781628855295940E+00
    S   4.598937801908700E+00   8.715852547165530E-01   2.226573532913690E+01
