 &control

     calculation = 'relax',

     restart_mode='from_scratch',

     tprnfor=.true.

     prefix='MoS2',

     outdir='./tmp',

     max_seconds = 84500

     disk_io = 'none'

     pseudo_dir = '~/pseudo/',

     nstep= 4

 /

 &system

    ibrav = 0,

    nat =  24
    ntyp = 2

    ecutwfc = 45 , ecutrho = 360,

    occupations='smearing', smearing='mv', degauss=0.02

/

  &electrons

     diagonalization='david',

     mixing_mode  =  'local-TF',

     mixing_beta = 0.7

   /

   &ions

     ion_dynamics = 'bfgs'

  /

   &cell

     cell_dynamics = 'bfgs',

   /

 ATOMIC_SPECIES

 Mo  95.5     Mo.pw91-n-van.UPF

 S   32.065   S.pw91-van_ak.UPF

K_POINTS {automatic}
  3  3  1 0 0 0
  
CELL_PARAMETERS (angstrom)
   6.505022005516050E+00   0.000000000000000E+00   0.000000000000000E+00
   3.210528051107020E+00   5.548447407192330E+00   0.000000000000000E+00
   2.656568167121820E+00  -6.620030704043600E-01   1.658157739876910E+01
  
ATOMIC_POSITIONS (angstrom)
   Mo   3.458335416732530E+00  -4.209660236898270E-01   1.333373250181350E+01
   Mo   8.298959580154801E+00   2.336766183697600E+00   1.340854469642570E+01
   Mo   6.715613807346810E+00  -4.287640740815120E-01   1.329804399389560E+01
   Mo   5.053284907054790E+00   2.331108836597510E+00   1.317825416837190E+01
   Mo   8.967377424150561E+00   5.292494830154220E+00   3.114951620618820E+00
   Mo   4.041787345011130E+00   2.534097467552290E+00   3.477489199475520E+00
   Mo   5.633445092238960E+00   5.245175878096640E+00   3.223129921830500E+00
   Mo   7.297941316103520E+00   2.585066420533640E+00   3.108785632595000E+00
    S   5.090854973354030E+00   5.752184187508840E-01   1.485791151514780E+01
    S   1.004956938668840E+01   3.259474454855880E+00   1.486919275228520E+01
    S   8.345665741151739E+00   4.408471700353280E-01   1.493383387362310E+01
    S   6.566939040272440E+00   3.249132569404690E+00   1.490405584065670E+01
    S   5.548657979910100E+00   1.720243331793460E+00   1.658654146726920E+00
    S   4.106152338702910E+00   4.205311302019110E+00   1.650622302384270E+00
    S   2.619999308286050E+00   1.652947749032160E+00   1.711428075676650E+00
    S   7.265727784135130E+00   4.452087583584010E+00   1.563488684082020E+00
    S   5.818934862279310E+00   1.552202660572580E+00   4.777776795737990E+00
    S   3.993016779126650E+00   4.465418688168290E+00   4.823398008462820E+00
    S   2.247089971619070E+00   1.596862938705150E+00   4.812808208387500E+00
    S   7.364994190084390E+00   4.382972120595600E+00   4.747237057626670E+00
    S   5.072109559167060E+00   4.081755911067270E-01   1.169469937006810E+01
    S   9.830597648082611E+00   3.236731679979950E+00   1.172773096478380E+01
    S   8.333254859853369E+00   5.309444677842940E-01   1.177061522971440E+01
    S   6.762542270202550E+00   3.266616848461640E+00   1.175198093936220E+01
