 &control

     calculation = 'scf',

     restart_mode='from_scratch',

     tprnfor=.true.

     prefix='MoS2',

     outdir='./tmp',

     max_seconds = 84500

     disk_io = 'none'

     pseudo_dir = '~/pseudo/',

 /

 &system

    ibrav = 0,

    nat =  24
    ntyp = 2

    ecutwfc = 45 , ecutrho = 360,

    occupations='smearing', smearing='mv', degauss=0.02

/

  &electrons

     diagonalization='david',

     mixing_mode  =  'local-TF',

     mixing_beta = 0.7

   /

   &ions

     ion_dynamics = 'bfgs'

  /

   &cell

     cell_dynamics = 'bfgs',

   /

 ATOMIC_SPECIES

 Mo  95.5     Mo.pw91-n-van.UPF

 S   32.065   S.pw91-van_ak.UPF

K_POINTS {automatic}
  3  3  2 0 0 0
  
CELL_PARAMETERS (angstrom)
   6.631435474770535E+00   0.000000000000000E+00   0.000000000000000E+00
  -3.305741739305318E+00   5.659969121520993E+00   0.000000000000000E+00
  -2.463951850623120E-01  -6.339961545815118E-01   1.172484824852694E+01
  
ATOMIC_POSITIONS (angstrom)
   Mo   1.342370271712790E-01  -4.972057857299500E-01   8.269854391244330E+00
   Mo  -1.642446371481610E+00   2.286277261718630E+00   8.774695596127200E+00
   Mo   3.429483111787140E+00  -4.505687751816820E-01   8.842963054023450E+00
   Mo   1.479779443434920E+00   2.210663394472520E+00   9.490842228730530E+00
   Mo  -2.189378642854500E-01  -1.136403893376580E-02   3.313042626236030E+00
   Mo  -1.886680939936830E+00   2.697611243065960E+00   2.633257394694990E+00
   Mo   2.997388347427880E+00  -1.174514469751940E-01   2.995875873899350E+00
   Mo   1.396241585890490E+00   2.834918454052630E+00   2.575502304742590E+00
    S   1.707527485017700E+00  -4.007771271260540E-01   9.847083956929991E+00
    S  -2.266382851276280E-02   3.067008330754610E+00   1.029961103225590E+01
    S   5.254849438014310E+00   1.424641168997510E-01   9.788254956049180E+00
    S   3.253624280837620E+00   2.767868905482910E+00   1.016311731740420E+01
    S  -3.640466558226490E-01   1.586200927171950E+00   1.718496408861390E+00
    S  -2.078175969123010E+00   4.462721425458410E+00   1.773889440355950E+00
    S   2.695330096055390E+00   1.775993938120600E+00   1.582463392184040E+00
    S   9.707088705875050E-01   4.610818190593600E+00   1.755821955351430E+00
    S   1.356040485676540E-01   2.127913384288920E+00   4.010843118369680E+00
    S  -2.017353653777120E+00   4.543446721884400E+00   4.160754565914740E+00
    S   3.558446320863620E+00   1.624560896151760E+00   3.881147161796360E+00
    S   1.572208461305130E+00   4.888967009920990E+00   4.140826856731830E+00
    S   1.396582310843040E+00   1.049206121319880E+00   7.761115900882010E+00
    S  -1.799357540717810E-01   3.630965662160660E+00   7.827244895897100E+00
    S   5.018472634450220E+00   6.596851525668240E-01   7.465017591005460E+00
    S   3.686695099338500E+00   3.332886716318310E+00   7.629816487044550E+00
