 &control

     calculation = 'scf',

     restart_mode='from_scratch',

     tprnfor=.true.

     prefix='MoS2',

     outdir='./tmp',

     max_seconds = 84500

     disk_io = 'none'

     nstep= 12

     pseudo_dir = '~/pseudo/',

 /

 &system

    ibrav = 0,

    nat =  18
    ntyp = 2

    ecutwfc = 45 , ecutrho = 360,

    occupations='smearing', smearing='mv', degauss=0.02

/

  &electrons

     diagonalization='david',

     mixing_mode  =  'local-TF',

     mixing_beta = 0.7

   /

   &ions

     ion_dynamics = 'bfgs'

  /

   &cell

     cell_dynamics = 'bfgs',

   /

 ATOMIC_SPECIES

 Mo  95.5     Mo.pw91-n-van.UPF

 S   32.065   S.pw91-van_ak.UPF

K_POINTS {automatic}
  3  3  1 0 0 0
  
CELL_PARAMETERS (angstrom)
   5.569463365518100E+00   0.000000000000000E+00   0.000000000000000E+00
  -1.963475199905740E-01   6.398748484073840E+00   0.000000000000000E+00
   1.626999393528250E+00   1.678348407502480E+00   2.443497930571160E+01
  
ATOMIC_POSITIONS (angstrom)
   Mo   5.578683264062440E+00   7.573384291527200E+00   2.260838730649450E+01
   Mo   5.639470771241830E+00   4.363380810390860E+00   2.261023134307330E+01
   Mo   2.838472872933050E+00   5.982972114259860E+00   2.258302040900140E+01
   Mo   2.916937379037090E+00   2.805528391135370E+00   2.262023438800980E+01
   Mo   1.422511367685650E+00   1.842791138673950E+00   4.885020330797860E+00
   Mo   5.188201660378250E+00   3.837714576902180E+00   4.959872805594030E+00
    S   1.949807803839480E+00   4.384000730130420E+00   2.423002873619260E+01
    S   1.841080383842250E+00   7.559709080571620E+00   2.420834776896760E+01
    S   4.662048283559390E+00   5.955182786534580E+00   2.421492883328500E+01
    S   4.793441376382490E+00   2.787895911459190E+00   2.419299543306160E+01
    S   3.112298732387600E+00   3.386727484548910E+00   4.469374062744510E+00
    S   8.882856531703029E-01   9.212185864340851E-01   2.785675945256410E+00
    S   1.945283691059300E+00   4.370309185351530E+00   2.105013324773430E+01
    S   1.834475051408630E+00   7.557685969232650E+00   2.104890702930180E+01
    S   4.663072105863850E+00   5.963343410309080E+00   2.104881189527560E+01
    S   4.794595803444640E+00   2.765622435350040E+00   2.104166675606690E+01
    S   5.662095072850550E+00   5.963544073795880E+00   5.448890285216960E+00
    S   5.703711093867140E+00   2.617732340418760E+00   6.689160445592600E+00
