 &control

     calculation = 'scf',

     restart_mode='from_scratch',

     tprnfor=.true.

     prefix='MoS2',

     outdir='./tmp',

     max_seconds = 84500

     disk_io = 'none'

     pseudo_dir = '~/pseudo/',

 /

 &system

    ibrav = 0,

    nat =  36
    ntyp = 2

    ecutwfc = 45 , ecutrho = 360,

    occupations='smearing', smearing='mv', degauss=0.02

/

  &electrons

     diagonalization='david',

     mixing_mode  =  'local-TF',

     mixing_beta = 0.7

   /

   &ions

     ion_dynamics = 'bfgs'

  /

   &cell

     cell_dynamics = 'bfgs',

   /

 ATOMIC_SPECIES

 Mo  95.5     Mo.pw91-n-van.UPF

 S   32.065   S.pw91-van_ak.UPF

K_POINTS {automatic}
  3  3  1 0 0 0
  
CELL_PARAMETERS (angstrom)
   6.865247337557057E+00   0.000000000000000E+00   0.000000000000000E+00
  -3.423749063129853E+00   5.858592633545481E+00   0.000000000000000E+00
   2.199621650077953E+00  -8.758748797144259E-01   2.167900706044595E+01
  
ATOMIC_POSITIONS (angstrom)
   Mo   2.319482659925320E+00   7.613618436268160E-01  -7.084531832881370E-02
   Mo   4.104746636006480E-01   3.603023799571150E+00   3.652519915719370E-02
   Mo   5.725060936813420E+00   7.573952901888060E-01  -1.196351256344940E-01
   Mo   3.839197447613270E+00   3.649898867873040E+00   3.627148675473570E-01
   Mo   1.256563465939580E+00   1.845050156312230E+00   1.661787594147520E+01
   Mo  -5.953455165598190E-01   4.478859180574170E+00   1.615871585994240E+01
   Mo   4.506726338266860E+00   1.633768355528320E+00   1.645051997321190E+01
   Mo   3.000193364088900E+00   4.807852140681240E+00   1.616079035309540E+01
   Mo  -3.242600923195570E-02   1.757229287271470E+00   4.976219912099010E+00
   Mo  -1.678816003720080E+00   4.954793570520950E+00   5.509313143803890E+00
   Mo   3.521256474118600E+00   2.089471273660760E+00   5.668463974613020E+00
   Mo   1.577647385298000E+00   4.750817407059830E+00   5.172115027327490E+00
    S   3.933635702871010E-01   1.583252072284840E+00   9.536881300335230E-01
    S  -1.322518385446860E+00   4.533219402365110E+00   1.128446320348120E+00
    S   3.868140065309750E+00   1.620050517390930E+00   1.005741118259930E+00
    S   2.029882855597520E+00   4.512749146279960E+00   1.114912690721090E+00
    S   2.896465211933490E+00   8.011194373118240E-01   1.744218053738570E+01
    S   1.119437684047780E+00   3.719817998747330E+00   1.734236413751340E+01
    S   6.317285100352680E+00   7.709326438027490E-01   1.732742719203100E+01
    S   4.586081271602780E+00   3.730402199177100E+00   1.727320241620970E+01
    S   3.533716499863010E+00  -3.529266577903100E-02   6.395656214257160E+00
    S   1.791043487384630E+00   2.974833877473650E+00   6.418958170354060E+00
    S   6.996327505233780E+00   7.662283683125171E-02   6.329951314334410E+00
    S   5.273084837490970E+00   2.887963777186380E+00   6.387166629161800E+00
    S   8.287761961842310E-01   1.741937508056970E+00   2.063201201970070E+01
    S  -8.403431316348000E-01   4.559041597539170E+00   2.067546776916120E+01
    S   4.268018381516660E+00   1.755067356620730E+00   2.065404531145710E+01
    S   2.579569993240230E+00   4.640842885129390E+00   2.059265755670460E+01
    S   4.519030983407590E+00  -1.886959248343400E-01   1.526621798074170E+01
    S   2.827350357680400E+00   2.729144062617420E+00   1.533447146588840E+01
    S   8.024657123239660E+00  -2.076783918806170E-01   1.522927140089500E+01
    S   6.277481336002580E+00   2.684959654279630E+00   1.524796239104690E+01
    S   1.785241316081820E+00   9.254114091871870E-01   4.294018897891630E+00
    S   7.142788880220820E-03   3.785510403756400E+00   4.234472385654080E+00
    S   5.122761517385060E+00   8.842325046365170E-01   4.260011692218310E+00
    S   3.455766979823640E+00   3.878674285666970E+00   4.411543148592340E+00
