 &control

     calculation = 'scf',

     restart_mode='from_scratch',

     tprnfor=.true.

     prefix='MoS2',

     outdir='./tmp',

     max_seconds = 84500

     disk_io = 'none'

     pseudo_dir = '~/pseudo/',

 /

 &system

    ibrav = 0,

    nat =  36
    ntyp = 2

    ecutwfc = 45 , ecutrho = 360,

    occupations='smearing', smearing='mv', degauss=0.02

/

  &electrons

     diagonalization='david',

     mixing_mode  =  'local-TF',

     mixing_beta = 0.7

   /

   &ions

     ion_dynamics = 'bfgs'

  /

   &cell

     cell_dynamics = 'bfgs',

   /

 ATOMIC_SPECIES

 Mo  95.5     Mo.pw91-n-van.UPF

 S   32.065   S.pw91-van_ak.UPF

K_POINTS {automatic}
  3  3  1 0 0 0
  
CELL_PARAMETERS (angstrom)
   6.540145750000000E+00   0.000000000000000E+00   0.000000000000000E+00
  -3.270073900000000E+00   5.663932700000000E+00   0.000000000000000E+00
   0.000000000000000E+00   0.000000000000000E+00   3.312646865000000E+01
  
ATOMIC_POSITIONS (angstrom)
   Mo   1.642304898187470E+00   9.138389786306820E-01   9.506964268237519E-02
   Mo  -1.056404624472880E-02   3.828748748809040E+00   8.426811561503671E-02
   Mo   4.980092695314190E+00   8.914645193374320E-01   4.023695735085900E-02
   Mo   3.255003969013700E+00   3.849071343085350E+00   6.653406058598919E-02
   Mo  -4.844955758241220E-02   1.934978669904010E+00   2.557476967848460E+01
   Mo  -1.642741177554150E+00   4.788364452003100E+00   2.557350941321850E+01
   Mo   3.270598071726760E+00   1.945591042230210E+00   2.541925301442640E+01
   Mo   1.611287057078670E+00   4.632771904396230E+00   2.545812767073390E+01
   Mo   1.724556188548530E-02   1.890888547879730E+00   7.723939585585970E+00
   Mo  -1.617255026982940E+00   4.665510844378290E+00   7.543501500568480E+00
   Mo   3.177071671359750E+00   1.911292665756870E+00   7.597063000240370E+00
   Mo   1.708443823678050E+00   4.684659289704270E+00   7.683497735929130E+00
    S   7.086270209501260E-03   1.807312902406990E+00   1.662692256408260E+00
    S  -1.617746838758990E+00   4.758095210850980E+00   1.694821663888360E+00
    S   3.211103102692800E+00   1.858078493399980E+00   1.679041987916340E+00
    S   1.623614302088580E+00   4.750625606780250E+00   1.509527143848550E+00
    S   1.664201494833860E+00   9.314205796030030E-01   2.719979484178880E+01
    S   7.401883262412939E-02   3.835385741800630E+00   2.713642331164460E+01
    S   4.830720792971610E+00   9.791221553348610E-01   2.716181919650930E+01
    S   3.292714700837770E+00   3.809226178875590E+00   2.719651540050620E+01
    S   1.566773683644560E+00   9.782139996265200E-01   9.164933499760410E+00
    S  -9.201641149428900E-02   3.739211997050280E+00   9.215976983245850E+00
    S   4.977980654067880E+00   9.354982242433330E-01   9.161542749685861E+00
    S   3.259587641565080E+00   3.805273120954400E+00   9.134469308288301E+00
    S   5.925624379253330E-02   1.956191319431820E+00   3.156529436733950E+01
    S  -1.560818480987710E+00   4.762068930879260E+00   3.157457568865960E+01
    S   3.251437093235410E+00   1.889508681752110E+00   3.142421525904440E+01
    S   1.733425434265650E+00   4.731946723844630E+00   3.153568334259300E+01
    S   1.694741248591080E+00   9.024053764403800E-01   2.382836743994470E+01
    S   5.042331447164700E-03   3.771298883172760E+00   2.379720642828250E+01
    S   4.878081866427180E+00   9.941577127867089E-01   2.397914383450750E+01
    S   3.277848399895270E+00   3.774073949426440E+00   2.379729112331330E+01
    S   1.635957451849790E+00   9.493364294265940E-01   6.121350212379960E+00
    S   8.765239874300440E-02   3.823975812374060E+00   6.018158790706670E+00
    S   4.814601617728260E+00   9.285394507402510E-01   5.981881434776210E+00
    S   3.265598778270710E+00   3.779808844602000E+00   6.121323011407020E+00
