 &control

     calculation = 'relax',

     restart_mode='from_scratch',

     tprnfor=.true.

     prefix='MoS2',

     outdir='./tmp',

     max_seconds = 84500

     disk_io = 'none'

     pseudo_dir = '~/pseudo/',

     nstep= 4

 /

 &system

    ibrav = 0,

    nat =  36
    ntyp = 2

    ecutwfc = 45 , ecutrho = 360,

    occupations='smearing', smearing='mv', degauss=0.02

/

  &electrons

     diagonalization='david',

     mixing_mode  =  'local-TF',

     mixing_beta = 0.7

   /

   &ions

     ion_dynamics = 'bfgs'

  /

   &cell

     cell_dynamics = 'bfgs',

   /

 ATOMIC_SPECIES

 Mo  95.5     Mo.pw91-n-van.UPF

 S   32.065   S.pw91-van_ak.UPF

K_POINTS {automatic}
  3  3  1 0 0 0
  
CELL_PARAMETERS (angstrom)
   6.449885017444430E+00   0.000000000000000E+00   0.000000000000000E+00
  -3.228727553453240E+00   5.587494776225060E+00   0.000000000000000E+00
  -1.248296605628670E-01  -7.191615102772700E-02   2.622357956250150E+01
  
ATOMIC_POSITIONS (angstrom)
   Mo  -1.410205227247120E+00   4.259635180272630E+00   1.615282536761090E+01
   Mo   2.027784805002970E-01   1.470361362727950E+00   1.613824370290320E+01
   Mo   3.423980272271110E+00   1.472920743755920E+00   1.613931694907930E+01
   Mo   1.814796781397440E+00   4.290549587937820E+00   1.614536743947100E+01
   Mo   3.841076014320620E+00   4.995377957062950E-01   8.359174687347110E+00
   Mo   2.214855239505410E+00   3.289533910155850E+00   8.369743054452590E+00
   Mo  -9.984939405926060E-01   3.264748033163900E+00   8.353488498375169E+00
   Mo   5.948698133437140E-01   4.760462968992310E-01   8.366891121533710E+00
   Mo   3.861039095499230E+00   7.714966969327360E-01   1.746217653857980E+00
   Mo   2.270982762685510E+00   3.585409513150770E+00   1.726989759225630E+00
   Mo  -9.562068672414850E-01   3.598601207547670E+00   1.688732580367240E+00
   Mo   6.655326553170490E-01   7.711178911153130E-01   1.752741573666590E+00
    S   2.258533757250710E+00   1.708570646926740E+00   1.719707828160240E-01
    S   6.749651389498000E-01   4.523079930242260E+00   1.387626758025170E-01
    S  -2.583112109741480E+00   4.525389765698950E+00   1.398035257033440E-01
    S  -9.600330977345670E-01   1.688168800436840E+00   1.820816255334080E-01
    S   1.971473759546440E-01   5.207897835292010E+00   1.772178452240770E+01
    S   1.812831938781790E+00   2.421706799080950E+00   1.770602828588350E+01
    S  -1.410564004320780E+00   2.389056453587080E+00   1.771603386129040E+01
    S  -3.014835298088070E+00   5.205998421591540E+00   1.772181811932570E+01
    S   1.924383116709260E-01   5.194399650818180E+00   1.456631219666790E+01
    S   1.814179205744390E+00   2.422551078239120E+00   1.456965003002530E+01
    S  -1.410048804056840E+00   2.399740786573950E+00   1.456268129098380E+01
    S  -3.009703457053750E+00   5.192447491877880E+00   1.456427845420750E+01
    S   5.973089882975220E-01   4.223599098874950E+00   9.933307107518189E+00
    S   2.214575624863250E+00   1.416894903553200E+00   9.928670933845300E+00
    S   5.448954331174250E+00   1.414925190238580E+00   9.946121361143410E+00
    S   3.845869384064840E+00   4.194658320760170E+00   9.936590265751990E+00
    S   6.080017700942320E-01   4.228246161544960E+00   6.780921131930770E+00
    S   2.207154806160110E+00   1.424893201852920E+00   6.793070167245900E+00
    S   5.453031411973700E+00   1.409162381847860E+00   6.765019296738470E+00
    S   3.830295038011410E+00   4.206137790052520E+00   6.782407508876060E+00
    S   2.265232440085740E+00   1.732381376160590E+00   3.328520178808190E+00
    S   6.455250678043730E-01   4.491099877923030E+00   3.312175414515920E+00
    S  -2.550460681964290E+00   4.486304582960780E+00   3.315175561624660E+00
    S  -9.638817585313790E-01   1.744472814912440E+00   3.292506281942030E+00
