 &control

     calculation = 'scf',

     restart_mode='from_scratch',

     tprnfor=.true.

     prefix='MoS2',

     outdir='./tmp',

     max_seconds = 84500

     disk_io = 'none'

     pseudo_dir = '~/pseudo/',

 /

 &system

    ibrav = 0,

    nat =  24
    ntyp = 2

    ecutwfc = 45 , ecutrho = 360,

    occupations='smearing', smearing='mv', degauss=0.02

/

  &electrons

     diagonalization='david',

     mixing_mode  =  'local-TF',

     mixing_beta = 0.7

   /

   &ions

     ion_dynamics = 'bfgs'

  /

   &cell

     cell_dynamics = 'bfgs',

   /

 ATOMIC_SPECIES

 Mo  95.5     Mo.pw91-n-van.UPF

 S   32.065   S.pw91-van_ak.UPF

K_POINTS {automatic}
  3  6  1 0 0 0
  
CELL_PARAMETERS (angstrom)
   6.414320190806833E+00   0.000000000000000E+00   0.000000000000000E+00
  -1.602561887370963E+00   2.762130656504918E+00   0.000000000000000E+00
  -4.668645651082809E-01  -1.215686690751897E+00   2.321837036262532E+01
  
ATOMIC_POSITIONS (angstrom)
   Mo   1.280011685995060E-01  -4.092417567160680E-01   8.718031026731500E+00
   Mo  -4.377071074475840E-01  -1.170244390094240E+00   2.006124450101120E+01
   Mo   3.322623991369470E+00  -3.454254912490170E-01   8.529262832630989E+00
   Mo   2.657162375675240E+00  -1.195750322619640E+00   2.084405575578950E+01
   Mo  -6.620594061684200E-02  -8.404521056271699E-02   3.001654063114770E+00
   Mo  -4.573136300968690E-01  -7.335831492304490E-01   1.448174224593350E+01
   Mo   3.091331438896170E+00  -7.214883626677771E-02   2.838574795703010E+00
   Mo   2.741155920215980E+00  -7.207268983446700E-01   1.441116640117000E+01
    S   1.804120949808130E+00  -6.168975400199540E-03   9.796405161174221E+00
    S   1.019206513271300E+00  -2.864247146089800E-01   2.177860921555520E+01
    S   4.936199350390390E+00   1.084167176631950E-01   9.819591274605809E+00
    S   4.297120386736420E+00  -2.581852638934290E-01   2.148247470881310E+01
    S  -3.341985787641230E-01   1.685460160202420E+00   1.774755604715890E+00
    S  -4.029565366945970E-01   1.063978965657570E+00   1.327609836021390E+01
    S   2.876602111023170E+00   1.672861984318980E+00   1.727240222484590E+00
    S   2.723426343752860E+00   1.113728591646940E+00   1.325857790111530E+01
    S   1.016798263671310E-01   1.811078647439660E+00   4.107874253394110E+00
    S  -4.751093184934640E-01   1.105753077340700E+00   1.564181499914190E+01
    S   3.404415661925290E+00   1.633959189588390E+00   4.057524262688930E+00
    S   2.738027378307840E+00   1.182819862867480E+00   1.562449487807830E+01
    S   1.471263785262390E+00   7.473180178090110E-01   7.456155527636320E+00
    S   1.260762856844490E+00  -1.236796988966770E-01   1.941623147138850E+01
    S   4.739356149551450E+00   7.822257196753540E-01   7.476467762342640E+00
    S   4.563500836502940E+00  -1.247519712341660E-01   1.902814695448800E+01
