 &control

     calculation = 'scf',

     restart_mode='from_scratch',

     tprnfor=.true.

     prefix='MoS2',

     outdir='./tmp',

     max_seconds = 84500

     disk_io = 'none'

     pseudo_dir = '~/pseudo/',

 /

 &system

    ibrav = 0,

    nat =  36
    ntyp = 2

    ecutwfc = 45 , ecutrho = 360,

    occupations='smearing', smearing='mv', degauss=0.02

/

  &electrons

     diagonalization='david',

     mixing_mode  =  'local-TF',

     mixing_beta = 0.7

   /

   &ions

     ion_dynamics = 'bfgs'

  /

   &cell

     cell_dynamics = 'bfgs',

   /

 ATOMIC_SPECIES

 Mo  95.5     Mo.pw91-n-van.UPF

 S   32.065   S.pw91-van_ak.UPF

K_POINTS {automatic}
  3  3  1 0 0 0
  
CELL_PARAMETERS (angstrom)
   6.686505865837590E+00   0.000000000000000E+00   0.000000000000000E+00
  -3.305134084375536E+00   5.917321594997552E+00   0.000000000000000E+00
  -2.789327659828243E+00  -1.547143676858714E+00   1.705859681024641E+01
  
ATOMIC_POSITIONS (angstrom)
   Mo   1.087742426349520E+00   1.049317049211400E+00   5.416588112746530E+00
   Mo  -4.767445519308650E-01   4.001881324373960E+00   5.532304450994290E+00
   Mo   4.471150206331560E+00   9.915835408934990E-01   5.647140700478540E+00
   Mo   2.741495628428880E+00   3.631552244626440E+00   6.149977094742140E+00
   Mo  -1.816831898030700E+00   4.997674573923570E-03   1.153063258206170E+01
   Mo  -3.449415103867550E+00   2.960233566832780E+00   1.122072021473500E+01
   Mo   1.508412178810590E+00   8.566261624129470E-02   1.155904969531590E+01
   Mo  -7.987257153054050E-02   3.044720995603030E+00   1.096254731714000E+01
   Mo  -3.039796099687600E+00  -1.791229148156310E+00   1.669704808509230E+01
   Mo  -5.126490505137320E+00   1.327899375811930E+00   1.769817489695000E+01
   Mo  -8.923197575390460E-02  -1.605779745413540E+00   1.765515273521930E+01
   Mo  -1.455207791017340E+00   1.211664270950630E+00   1.664878842950440E+01
    S  -7.288820358421320E-01   1.766335811804750E+00   7.567436375130530E-01
    S  -2.448384425307890E+00   4.996745962566590E+00   1.431951690652340E+00
    S   2.518326453812170E+00   1.973639105084320E+00   1.463591582497120E+00
    S   9.370417078226690E-01   4.662921430320140E+00   8.419132699780000E-01
    S  -5.683234265726290E-01   1.317348870429440E+00   4.403518199349460E+00
    S  -2.325447900309880E+00   3.546878111836500E+00   4.821262672002530E+00
    S   2.912538229374380E+00   2.468248544137770E-01   4.419744262731020E+00
    S   1.498745475551810E+00   3.335680416884660E+00   4.600101655935460E+00
    S  -8.669777980783070E-01  -2.785246154266220E-01   6.532298157293040E+00
    S  -2.698433148640290E+00   2.268454546900440E+00   7.062530178970840E+00
    S   2.406482543887630E+00  -5.033726102158660E-01   6.715801772366600E+00
    S   7.976723735383640E-01   2.500094870937400E+00   6.765682409119000E+00
    S  -4.525012427726920E-02  -7.640572141576140E-01   1.039243514426260E+01
    S  -1.736077284190770E+00   2.024828776998450E+00   1.029021706674770E+01
    S   3.339866628346210E+00  -6.956253531774910E-01   1.030681377094550E+01
    S   1.617954801393570E+00   2.114975524766600E+00   1.032601457277960E+01
    S  -1.284261650775220E-01   1.466842012215500E+00   1.220859159681350E+01
    S  -1.735621912183100E+00   4.131942658748970E+00   1.223444967179860E+01
    S   3.230005715498280E+00   1.455231872044780E+00   1.233560613722300E+01
    S   1.521534871698750E+00   4.164123997415850E+00   1.229192129637620E+01
    S  -2.202178617799240E+00  -3.401154904982180E-01   1.558123675616430E+01
    S  -4.338168824926790E+00   3.015624888160280E+00   1.631363751327890E+01
    S   5.921563819882660E-01   1.336365796592110E-01   1.631813948355370E+01
    S  -5.489020590698960E-01   2.677586630922160E+00   1.562138936496500E+01
