 &control

     calculation = 'scf',

     restart_mode='from_scratch',

     tprnfor=.true.

     prefix='MoS2',

     outdir='./tmp',

     max_seconds = 84500

     disk_io = 'none'

     pseudo_dir = '~/pseudo/',

 /

 &system

    ibrav = 0,

    nat =  24
    ntyp = 2

    ecutwfc = 45 , ecutrho = 360,

    occupations='smearing', smearing='mv', degauss=0.02

/

  &electrons

     diagonalization='david',

     mixing_mode  =  'local-TF',

     mixing_beta = 0.7

   /

   &ions

     ion_dynamics = 'bfgs'

  /

   &cell

     cell_dynamics = 'bfgs',

   /

 ATOMIC_SPECIES

 Mo  95.5     Mo.pw91-n-van.UPF

 S   32.065   S.pw91-van_ak.UPF

K_POINTS {automatic}
  3  5  1 0 0 0
  
CELL_PARAMETERS (angstrom)
   6.919622541408500E+00   0.000000000000000E+00   0.000000000000000E+00
  -1.707919145068445E+00   2.942218960946733E+00   0.000000000000000E+00
  -3.202130938027540E+00   9.732259792375902E-01   2.353275042246398E+01
  
ATOMIC_POSITIONS (angstrom)
   Mo   1.595503396385180E-01   1.574006579868370E+00   8.760009475903320E+00
   Mo  -3.335224412615710E+00   1.805135007253290E+00   2.093898545649690E+01
   Mo   3.655539627886150E+00   1.440392194498670E+00   8.231736178528349E+00
   Mo   1.026378595122840E-01   1.899641582781810E+00   2.103957051886860E+01
   Mo  -6.005864643424480E-01  -9.677756838442010E-01   3.205296249847240E+00
   Mo  -2.808498579697960E+00  -5.614999415393310E-01   1.477075223873290E+01
   Mo   2.819193413633570E+00  -1.000856889158960E+00   2.903938007211500E+00
   Mo   7.040560035641060E-01  -5.577828789595470E-01   1.437417814061380E+01
    S   2.153372349635170E+00   2.572290011124850E+00   9.360061713248930E+00
    S  -1.449176000451280E+00   2.915496196376650E+00   2.203364855613620E+01
    S   5.589281558133580E+00   2.705055213540440E+00   9.616085348229440E+00
    S   1.826104721866690E+00   2.958014429240970E+00   2.200613545186220E+01
    S  -6.010422850132290E-01   9.429712845902400E-01   2.048033126527610E+00
    S  -2.847894130678440E+00   1.454912245420550E+00   1.362818331427760E+01
    S   2.857139925812460E+00   9.765692154280150E-01   2.060977931390340E+00
    S   7.454305885350770E-01   1.493752404569640E+00   1.354985078212570E+01
    S  -5.610335070100970E-01   2.935192858506640E+00   3.999425998537360E+00
    S  -2.762551680565790E+00   3.476850484874460E+00   1.547220229998220E+01
    S   2.962047422480510E+00   2.917466626826720E+00   4.105562740774960E+00
    S   6.111819649880980E-01   3.385144947714870E+00   1.564157499551560E+01
    S   2.080132902556750E+00   5.064402290088120E-01   7.241517167991020E+00
    S  -1.413955144685470E+00   8.639183455173910E-01   2.002696377187900E+01
    S   5.602097099805800E+00   6.463515176578331E-01   7.391063451010570E+00
    S   1.953550967349840E+00   1.096421403176020E+00   1.989378757752780E+01
