 &control

     calculation = 'scf',

     restart_mode='from_scratch',

     tprnfor=.true.

     prefix='MoS2',

     outdir='./tmp',

     max_seconds = 84500

     disk_io = 'none'

     pseudo_dir = '~/pseudo/',

     nstep= 30

 /

 &system

    ibrav = 0,

    nat =  24
    ntyp = 2

    ecutwfc = 45 , ecutrho = 360,

    occupations='smearing', smearing='mv', degauss=0.02

/

  &electrons

     diagonalization='david',

     mixing_mode  =  'local-TF',

     mixing_beta = 0.7

   /

   &ions

     ion_dynamics = 'bfgs'

  /

   &cell

     cell_dynamics = 'bfgs',

   /

 ATOMIC_SPECIES

 Mo  95.5     Mo.pw91-n-van.UPF

 S   32.065   S.pw91-van_ak.UPF

K_POINTS {automatic}
  3  3  1 0 0 0
  
CELL_PARAMETERS (angstrom)
   6.434747606137700E+00   0.000000000000000E+00   0.000000000000000E+00
   3.194841926086020E+00   5.590539773204100E+00   0.000000000000000E+00
   4.060119674519070E-01   7.659898951180630E-01   1.584295620037660E+01
  
ATOMIC_POSITIONS (angstrom)
   Mo   1.208027267464540E+00   1.056609132842280E+00   1.176095756099530E+01
   Mo   6.014566771265710E+00   3.823121356981110E+00   1.182448021120560E+01
   Mo   4.418346746799760E+00   1.038865366666260E+00   1.170014193563970E+01
   Mo   2.809934659717490E+00   3.807363988236460E+00   1.179174975278840E+01
   Mo   8.836041341952161E+00   5.302166901108130E+00   4.000165250615490E+00
   Mo   4.008937739014850E+00   2.532338463896820E+00   3.989890713783670E+00
   Mo   5.606417753675350E+00   5.273039443103550E+00   4.094755693293970E+00
   Mo   7.252978606716850E+00   2.516488607117040E+00   4.032267589032440E+00
    S   2.830088732550920E+00   1.948171159754060E+00   1.333300151462670E+01
    S   7.631335634761060E+00   4.827042677705820E+00   1.334651545654080E+01
    S   5.984320645151540E+00   1.938896768705300E+00   1.334451022527800E+01
    S   4.378142062094560E+00   4.810796345691580E+00   1.335815147953490E+01
    S   5.635211797603560E+00   1.595200341742980E+00   2.447334341548450E+00
    S   4.027674241031040E+00   4.415406831759090E+00   2.441314114783480E+00
    S   2.403909555943630E+00   1.526792537857540E+00   2.467097349691760E+00
    S   7.172937096873570E+00   4.383884436820860E+00   2.457814439966790E+00
    S   5.623351471753950E+00   1.580476272973060E+00   5.586410411616130E+00
    S   3.970582789785270E+00   4.331839451361720E+00   5.617568625980910E+00
    S   2.427380939817710E+00   1.584402181888950E+00   5.618638769906120E+00
    S   7.288199732329430E+00   4.363136488885900E+00   5.618320601123170E+00
    S   2.806795017353130E+00   1.964981391500980E+00   1.015116307202750E+01
    S   7.639705685325730E+00   4.691712675213180E+00   1.019530820578400E+01
    S   6.063659787507370E+00   2.000414862968950E+00   1.018523964247340E+01
    S   4.440774237761960E+00   4.728377094949510E+00   1.021114624480520E+01
