 &control

     calculation = 'scf',

     restart_mode='from_scratch',

     tprnfor=.true.

     prefix='MoS2',

     outdir='./tmp',

     max_seconds = 84500

     disk_io = 'none'

     pseudo_dir = '~/pseudo/',

 /

 &system

    ibrav = 0,

    nat =  12
    ntyp = 2

    ecutwfc = 45 , ecutrho = 360,

    occupations='smearing', smearing='mv', degauss=0.02

/

  &electrons

     diagonalization='david',

     mixing_mode  =  'local-TF',

     mixing_beta = 0.7

   /

   &ions

     ion_dynamics = 'bfgs'

  /

   &cell

     cell_dynamics = 'bfgs',

   /

 ATOMIC_SPECIES

 Mo  95.5     Mo.pw91-n-van.UPF

 S   32.065   S.pw91-van_ak.UPF

K_POINTS {automatic}
  5  3  2 0 0 0
  
CELL_PARAMETERS (angstrom)
   3.393547126955166E+00   0.000000000000000E+00   0.000000000000000E+00
  -1.995755825421234E-02   5.883781110543095E+00   0.000000000000000E+00
   1.594610312968073E-03  -2.074635170778023E+00   1.289141751206763E+01
  
ATOMIC_POSITIONS (angstrom)
   Mo   3.382193485834220E+00   6.247401137425130E-01   7.816935935995790E+00
   Mo   1.674283890049830E+00   3.565552342359440E+00   7.803185472644350E+00
   Mo   1.813988911739660E+00   1.511725363777960E+00   1.356287915382920E+00
   Mo   1.083366840635430E-01   4.454640193908800E+00   1.369416740758700E+00
    S   5.018276105571150E-02   6.340462427769860E-01   2.402146215993310E+00
    S   1.752432462976610E+00   1.502407433957510E+00   6.770834390986370E+00
    S   4.516436329220870E-02   4.444114510592350E+00   6.767731934911020E+00
    S   5.741971100478610E-02   2.484987176750880E+00   8.850889347657340E+00
    S   3.940453324432330E-02   2.594169856284960E+00   3.214542181173580E-01
    S   1.763173751314880E+00  -4.577392560636700E-01   8.851468126439130E+00
    S   1.725249858852080E+00   5.535251879492100E+00   3.220148752009720E-01
    S   1.737468347116620E+00   3.576101881396290E+00   2.405112954358360E+00
