 &control

     calculation = 'relax',

     restart_mode='from_scratch',

     tprnfor=.true.

     prefix='MoS2',

     outdir='./tmp',

     max_seconds = 84500

     disk_io = 'none'

     pseudo_dir = '~/pseudo/',

     nstep= 4

 /

 &system

    ibrav = 0,

    nat =  24
    ntyp = 2

    ecutwfc = 45 , ecutrho = 360,

    occupations='smearing', smearing='mv', degauss=0.02

/

  &electrons

     diagonalization='david',

     mixing_mode  =  'local-TF',

     mixing_beta = 0.7

   /

   &ions

     ion_dynamics = 'bfgs'

  /

   &cell

     cell_dynamics = 'bfgs',

   /

 ATOMIC_SPECIES

 Mo  95.5     Mo.pw91-n-van.UPF

 S   32.065   S.pw91-van_ak.UPF

K_POINTS {automatic}
  3  3  1 0 0 0
  
CELL_PARAMETERS (angstrom)
   6.444643718383450E+00   0.000000000000000E+00   0.000000000000000E+00
   3.222271980621790E+00   5.582002829841760E+00   0.000000000000000E+00
   4.174917383806760E-01   3.451581444996240E-01   1.911747407125660E+01
  
ATOMIC_POSITIONS (angstrom)
   Mo   1.362691925959710E+00   5.855281671841450E-01   1.518418826284480E+01
   Mo   2.974185935261730E+00   3.376301574485250E+00   1.518402624378310E+01
   Mo   6.196172781706800E+00   3.376910655242400E+00   1.518420811990570E+01
   Mo   4.585244405607140E+00   5.857890891381140E-01   1.518410560590800E+01
   Mo   8.709003151444350E+00   5.355620337154610E+00   3.878121917467440E+00
   Mo   7.098101494705690E+00   2.565101272417290E+00   3.878314200829860E+00
   Mo   3.875335457240220E+00   2.564904672084440E+00   3.878300991041660E+00
   Mo   5.486990804118800E+00   5.355975176407610E+00   3.878284839786570E+00
    S   6.196233055449570E+00   5.237661898424530E+00   1.676249203527090E+01
    S   4.585211725485950E+00   2.446320549831830E+00   1.676264152208210E+01
    S   7.807294017914850E+00   2.446342828345140E+00   1.676226375813950E+01
    S   9.418390442064259E+00   5.236945534323680E+00   1.676231937850190E+01
    S   6.534802528841490E-01   7.042798154382410E-01   2.300208859526860E+00
    S   2.264495308781430E+00   3.495102699368280E+00   2.299583654305270E+00
    S   5.486755951369360E+00   3.495169416085770E+00   2.300186227446290E+00
    S   3.875833153060160E+00   7.042875926674340E-01   2.299850288173310E+00
    S   6.532698089100780E-01   7.044275943715790E-01   5.450710298801520E+00
    S   2.264429259957450E+00   3.495518826637220E+00   5.451387287640830E+00
    S   5.486665211171200E+00   3.495460537410580E+00   5.450893473052790E+00
    S   3.875903254235280E+00   7.044558620078560E-01   5.451070515851050E+00
    S   6.196258678115250E+00   5.237356476391740E+00   1.361138561128440E+01
    S   4.585446896548350E+00   2.446096362833410E+00   1.361112062895730E+01
    S   7.807217851097980E+00   2.446044717576390E+00   1.361156566930720E+01
    S   9.418509542781790E+00   5.236784710670900E+00   1.361141905025580E+01
