 &control

     calculation = 'scf',

     restart_mode='from_scratch',

     tprnfor=.true.

     prefix='MoS2',

     outdir='./tmp',

     max_seconds = 84500

     disk_io = 'none'

     nstep= 12

     pseudo_dir = '~/pseudo/',

 /

 &system

    ibrav = 0,

    nat =  30
    ntyp = 2

    ecutwfc = 45 , ecutrho = 360,

    occupations='smearing', smearing='mv', degauss=0.02

/

  &electrons

     diagonalization='david',

     mixing_mode  =  'local-TF',

     mixing_beta = 0.7

   /

   &ions

     ion_dynamics = 'bfgs'

  /

   &cell

     cell_dynamics = 'bfgs',

   /

 ATOMIC_SPECIES

 Mo  95.5     Mo.pw91-n-van.UPF

 S   32.065   S.pw91-van_ak.UPF

K_POINTS {gamma}
  
CELL_PARAMETERS (angstrom)
   2.369000265200000E+01   0.000000000000000E+00   0.000000000000000E+00
   0.000000000000000E+00   1.966524720400000E+01   0.000000000000000E+00
   0.000000000000000E+00   0.000000000000000E+00   2.095053294500000E+01
  
ATOMIC_POSITIONS (angstrom)
   Mo   1.242436136400000E+01   7.879153845000000E+00   8.717799028000000E+00
   Mo   1.161512771800000E+01   6.962473582000000E+00   1.152817917900000E+01
   Mo   1.219436631800000E+01   9.305520570000001E+00   1.361001888500000E+01
   Mo   1.013735925800000E+01   1.156443561900000E+01   1.295660386800000E+01
   Mo   7.946463635000000E+00   1.237135259000000E+01   1.117226899300000E+01
   Mo   1.042010021600000E+01   1.162489388800000E+01   1.018551721100000E+01
   Mo   9.923860206000001E+00   8.651535998000000E+00   9.704465571000000E+00
   Mo   1.359483586000000E+01   9.949058686000001E+00   7.081034901000000E+00
   Mo   1.557466522200000E+01   1.116041675100000E+01   9.499440902000000E+00
   Mo   1.322320786600000E+01   1.099423469900000E+01   1.132995613500000E+01
    S   9.250518536000000E+00   1.366524720400000E+01   9.808964532999999E+00
    S   1.301741065400000E+01   6.000000000000000E+00   9.950086883000001E+00
    S   1.491144401300000E+01   9.240835369999999E+00   1.050534374600000E+01
    S   1.548236780800000E+01   1.134468335500000E+01   7.191564077000000E+00
    S   8.915514851999999E+00   1.028120761200000E+01   1.141389588600000E+01
    S   9.490428968000000E+00   6.549574669000000E+00   1.074843723600000E+01
    S   1.160540848200000E+01   9.211477830000000E+00   1.138934561300000E+01
    S   1.769000265200000E+01   1.120170501400000E+01   9.947908772000000E+00
    S   1.216553804800000E+01   6.993885340000000E+00   1.386533223700000E+01
    S   1.172950932300000E+01   1.291960868400000E+01   1.198922480700000E+01
    S   1.373140117500000E+01   7.663417933000000E+00   6.750442730000000E+00
    S   1.440940115200000E+01   1.289933561400000E+01   1.043789504800000E+01
    S   8.488083462000001E+00   1.312729534000000E+01   1.340923016500000E+01
    S   1.042799047800000E+01   7.203019701000000E+00   7.837076567000000E+00
    S   9.330286269000000E+00   1.042336520800000E+01   8.280088342000001E+00
    S   6.000000000000000E+00   1.187582146900000E+01   1.030708867300000E+01
    S   1.409060996900000E+01   1.056348393400000E+01   1.354281431800000E+01
    S   1.072896811100000E+01   1.044658889400000E+01   1.495053294500000E+01
    S   1.243531603000000E+01   1.022575087600000E+01   9.049023010000001E+00
    S   1.195034607500000E+01   1.090121589500000E+01   6.000000000000000E+00
