 &control

     calculation = 'scf',

     restart_mode='from_scratch',

     tprnfor=.true.

     prefix='MoS2',

     outdir='./tmp',

     max_seconds = 84500

     disk_io = 'none'

     pseudo_dir = '~/pseudo/',

 /

 &system

    ibrav = 0,

    nat =  24
    ntyp = 2

    ecutwfc = 45 , ecutrho = 360,

    occupations='smearing', smearing='mv', degauss=0.02

/

  &electrons

     diagonalization='david',

     mixing_mode  =  'local-TF',

     mixing_beta = 0.7

   /

   &ions

     ion_dynamics = 'bfgs'

  /

   &cell

     cell_dynamics = 'bfgs',

   /

 ATOMIC_SPECIES

 Mo  95.5     Mo.pw91-n-van.UPF

 S   32.065   S.pw91-van_ak.UPF

K_POINTS {automatic}
  3  5  1 0 0 0
  
CELL_PARAMETERS (angstrom)
   6.802334992680269E+00   0.000000000000000E+00   0.000000000000000E+00
  -1.693759401872257E+00   2.939152909657938E+00   0.000000000000000E+00
  -1.663104694489022E+00  -8.685683033005049E-01   2.439786610848849E+01
  
ATOMIC_POSITIONS (angstrom)
   Mo   3.353740940831010E-01   8.557185489736910E-01   9.067372090230430E+00
   Mo  -1.666946493540550E+00   1.973025327718850E-01   2.183428110447530E+01
   Mo   3.737479456703430E+00   7.557264534218791E-01   8.775416170392340E+00
   Mo   1.692806993624830E+00   2.723278176852620E-01   2.150970993805770E+01
   Mo  -3.162583681150190E-01  -1.194945674511060E+00   3.244084590437570E+00
   Mo  -1.569981078978750E+00  -1.644802150069540E+00   1.536145080357670E+01
   Mo   3.056851297071900E+00  -1.182019706171000E+00   2.829993388687520E+00
   Mo   1.815905213579910E+00  -1.707889468718250E+00   1.495030753514920E+01
    S   2.085290773836010E+00   1.872601357140340E+00   9.969228830682439E+00
    S  -1.270107716198510E-01   1.274530816286050E+00   2.264657987777140E+01
    S   5.552620035218980E+00   1.827460182475270E+00   1.004901707681470E+01
    S   3.199681262721250E+00   1.236383194379250E+00   2.275462164560850E+01
    S  -3.358367901350350E-01   7.669689227893930E-01   2.049246291230140E+00
    S  -1.549923468914680E+00   3.997785621224530E-01   1.410631107115480E+01
    S   3.065829978961690E+00   7.579313145271780E-01   1.960591870637380E+00
    S   1.871943118625410E+00   3.567908423454260E-01   1.411338405291950E+01
    S  -3.443012921299980E-01   2.697931848956410E+00   4.064029033064800E+00
    S  -1.560630747381580E+00   2.358855828934440E+00   1.616094665434530E+01
    S   3.034145782798420E+00   2.711281312669780E+00   4.111527599289720E+00
    S   1.896165270951600E+00   2.339401097233430E+00   1.625136097060310E+01
    S   2.048423490637050E+00  -1.487658844842270E-01   7.880194858481310E+00
    S  -2.241077351513630E-01  -7.411430463307350E-01   2.065577938944050E+01
    S   5.478055007366330E+00  -6.793048822635840E-02   7.914890238629460E+00
    S   3.207463440721610E+00  -7.287821431292690E-01   2.053291703312810E+01
