 &control

     calculation = 'scf',

     restart_mode='from_scratch',

     tprnfor=.true.

     prefix='MoS2',

     outdir='./tmp',

     max_seconds = 84500

     disk_io = 'none'

     pseudo_dir = '~/pseudo/',

 /

 &system

    ibrav = 0,

    nat =  12
    ntyp = 2

    ecutwfc = 45 , ecutrho = 360,

    occupations='smearing', smearing='mv', degauss=0.02

/

  &electrons

     diagonalization='david',

     mixing_mode  =  'local-TF',

     mixing_beta = 0.7

   /

   &ions

     ion_dynamics = 'bfgs'

  /

   &cell

     cell_dynamics = 'bfgs',

   /

 ATOMIC_SPECIES

 Mo  95.5     Mo.pw91-n-van.UPF

 S   32.065   S.pw91-van_ak.UPF

K_POINTS {automatic}
  3  3  1 0 0 0
  
CELL_PARAMETERS (angstrom)
   6.333668095871174E+00   0.000000000000000E+00   0.000000000000000E+00
  -3.113366756790437E+00   5.681562329069630E+00   0.000000000000000E+00
   7.084967500054804E-01  -2.434730926161357E-02   1.705956160053291E+01
  
ATOMIC_POSITIONS (angstrom)
   Mo  -4.262106443579360E-02  -1.423873562269600E-01  -2.520952570253410E-01
   Mo  -1.557093696923590E+00   2.743651294566130E+00  -1.206758716239700E-01
   Mo   3.141724044816330E+00  -1.325834262902570E-01  -2.519585241009740E-01
   Mo   1.594166338335190E+00   2.919436117546900E+00   5.626893931996430E-01
    S  -1.195993136266790E-01   2.424160671335780E+00   1.382206062464740E+00
    S  -1.554430141951040E+00   5.245045089003630E+00   9.931854446429610E-01
    S   3.342501906340830E+00   2.364216045029350E+00   1.255774800140550E+00
    S   1.572077586627320E+00   5.029776188224020E+00   1.149510375227320E+00
    S   7.821551717812980E-01   1.666895680606780E+00   1.602434720413660E+01
    S  -8.857574978166080E-01   4.444208846641660E+00   1.573898825928770E+01
    S   4.020713915435770E+00   1.542170196115400E+00   1.588433403256720E+01
    S   2.416889836662290E+00   4.293523609055740E+00   1.593398074276670E+01
