 &control

     calculation = 'scf',

     restart_mode='from_scratch',

     tprnfor=.true.

     prefix='MoS2',

     outdir='./tmp',

     max_seconds = 84500

     disk_io = 'none'

     pseudo_dir = '~/pseudo/',

 /

 &system

    ibrav = 0,

    nat =  24
    ntyp = 2

    ecutwfc = 45 , ecutrho = 360,

    occupations='smearing', smearing='mv', degauss=0.02

/

  &electrons

     diagonalization='david',

     mixing_mode  =  'local-TF',

     mixing_beta = 0.7

   /

   &ions

     ion_dynamics = 'bfgs'

  /

   &cell

     cell_dynamics = 'bfgs',

   /

 ATOMIC_SPECIES

 Mo  95.5     Mo.pw91-n-van.UPF

 S   32.065   S.pw91-van_ak.UPF

K_POINTS {automatic}
  3  3  1 0 0 0
  
CELL_PARAMETERS (angstrom)
   6.333518666239596E+00   0.000000000000000E+00   0.000000000000000E+00
  -3.190077294824822E+00   5.470054861961974E+00   0.000000000000000E+00
  -5.135285873109766E-02  -1.279936461558278E-01   2.492886186040456E+01
  
ATOMIC_POSITIONS (angstrom)
   Mo   1.600085039480030E+00   8.921110193488750E-01   3.743387588397270E+00
   Mo  -1.451884061564220E-02   3.628276345634070E+00   3.683847265120110E+00
   Mo   4.761957796578370E+00   8.937259834680700E-01   3.700498311189390E+00
   Mo   3.153840968309150E+00   3.630774017699670E+00   3.805421250654950E+00
   Mo  -6.742500835935231E-02   1.718911399271320E+00   2.122970392992140E+01
   Mo  -1.661747596715180E+00   4.450575630996140E+00   2.120097620235340E+01
   Mo   3.097699219808010E+00   1.716261221225840E+00   2.118009580384300E+01
   Mo   1.507445331687650E+00   4.454831249827080E+00   2.117169819638870E+01
    S   7.335307655885690E-03   1.729081678536340E+00   4.896132345336960E+00
    S  -1.590475998653190E+00   4.518339208737590E+00   4.930379986365890E+00
    S   3.175301988131200E+00   1.784391000649530E+00   4.935803140037720E+00
    S   1.536414598361570E+00   4.492132859929060E+00   4.914155199449550E+00
    S   1.505747414936580E+00   7.778218283769960E-01   2.238736336368800E+01
    S  -8.469370835883171E-02   3.517211122019780E+00   2.238883151474940E+01
    S   4.657527551106850E+00   7.994195053151401E-01   2.237478826859680E+01
    S   3.060934289794390E+00   3.533242193160790E+00   2.236833704750970E+01
    S   1.542814653301770E-02   1.854612614860000E+00   2.527416490246320E+00
    S  -1.624572153610190E+00   4.554486642617060E+00   2.559781230121300E+00
    S   3.184040138854390E+00   1.828762791638560E+00   2.565167658992120E+00
    S   1.565924552071310E+00   4.576195985262970E+00   2.544149023081860E+00
    S   1.520554243824640E+00   8.352694046721511E-01   2.001700023009560E+01
    S  -6.024133086202870E-02   3.565000376691250E+00   2.001826628080320E+01
    S   4.711513978976620E+00   8.007974807545720E-01   2.000443116493970E+01
    S   3.138003363684370E+00   3.535281024841370E+00   1.999852972326740E+01
