 &control

     calculation = 'scf',

     restart_mode='from_scratch',

     tprnfor=.true.

     prefix='MoS2',

     outdir='./tmp',

     max_seconds = 84500

     disk_io = 'none'

     pseudo_dir = '~/pseudo/',

 /

 &system

    ibrav = 0,

    nat =  24
    ntyp = 2

    ecutwfc = 45 , ecutrho = 360,

    occupations='smearing', smearing='mv', degauss=0.02

/

  &electrons

     diagonalization='david',

     mixing_mode  =  'local-TF',

     mixing_beta = 0.7

   /

   &ions

     ion_dynamics = 'bfgs'

  /

   &cell

     cell_dynamics = 'bfgs',

   /

 ATOMIC_SPECIES

 Mo  95.5     Mo.pw91-n-van.UPF

 S   32.065   S.pw91-van_ak.UPF

K_POINTS {automatic}
  3  6  1 0 0 0
  
CELL_PARAMETERS (angstrom)
   6.845230716116368E+00   0.000000000000000E+00   0.000000000000000E+00
  -1.731418980499237E+00   2.932048966365848E+00   0.000000000000000E+00
   9.844987424027202E-02   9.860062594844395E+00   2.074030482586723E+01
  
ATOMIC_POSITIONS (angstrom)
   Mo   4.043223326462460E-01   2.545263088300380E+00   2.603999430300680E+00
   Mo  -8.307799739377890E-02   7.496826898948900E+00   1.286291913257320E+01
   Mo   3.724063202986530E+00   2.667613682993570E+00   2.665026047127990E+00
   Mo   3.372583893593980E+00   7.549856126284370E+00   1.323963840768070E+01
   Mo   1.648226676404670E+00   5.238929506319600E+00   7.697333041570550E+00
   Mo   1.710199609622570E+00   1.022330713832140E+01   1.817626983331560E+01
   Mo   5.073087140415930E+00   5.235052874219910E+00   7.646301077421740E+00
   Mo   5.090090283801570E+00   1.024746877107900E+01   1.805953422972500E+01
    S   1.880206590059570E+00   3.569341855759620E+00   3.695032927510520E+00
    S   1.658362926089420E+00   8.537777981600479E+00   1.407784046061590E+01
    S   5.317226910886670E+00   3.652997471415880E+00   3.647292716841290E+00
    S   5.051213958101100E+00   8.465942925667431E+00   1.409285362329090E+01
    S  -1.221039497760010E-01   6.219507359229680E+00   8.709855093549100E+00
    S   7.629387140408821E-02   1.112537545161840E+01   1.915616904687410E+01
    S   3.310719991483610E+00   6.205441968101620E+00   8.688669967967170E+00
    S   3.477711538592800E+00   1.110731899839490E+01   1.913599202460970E+01
    S   1.950467978027020E+00   1.692501158071630E+00   1.576455804168090E+00
    S   1.632650433057000E+00   6.559075837970080E+00   1.200572966197030E+01
    S   5.292617646306780E+00   1.668341868699860E+00   1.640097139226820E+00
    S   5.129979021158920E+00   6.575107965735480E+00   1.202811048902210E+01
    S  -8.500404930537020E-02   4.288869596578710E+00   6.654473782273530E+00
    S   7.238443353040221E-02   9.182380247298100E+00   1.710049397725430E+01
    S   3.348943127932980E+00   4.256557341341680E+00   6.648751915511680E+00
    S   3.525525046095280E+00   9.158610778913610E+00   1.708501618377020E+01
