 &control

     calculation = 'scf',

     restart_mode='from_scratch',

     tprnfor=.true.

     prefix='MoS2',

     outdir='./tmp',

     max_seconds = 84500

     disk_io = 'none'

     pseudo_dir = '~/pseudo/',

 /

 &system

    ibrav = 0,

    nat =  12
    ntyp = 2

    ecutwfc = 45 , ecutrho = 360,

    occupations='smearing', smearing='mv', degauss=0.02

/

  &electrons

     diagonalization='david',

     mixing_mode  =  'local-TF',

     mixing_beta = 0.7

   /

   &ions

     ion_dynamics = 'bfgs'

  /

   &cell

     cell_dynamics = 'bfgs',

   /

 ATOMIC_SPECIES

 Mo  95.5     Mo.pw91-n-van.UPF

 S   32.065   S.pw91-van_ak.UPF

K_POINTS {automatic}
  3  3  3 0 0 0
  
CELL_PARAMETERS (angstrom)
   6.499473566254196E+00   0.000000000000000E+00   0.000000000000000E+00
  -3.251923011540965E+00   5.628773989791837E+00   0.000000000000000E+00
   1.050846959226101E-02   2.800903955465145E-02   5.044620698311450E+00
  
ATOMIC_POSITIONS (angstrom)
   Mo   6.354277769386330E-03   3.238361958267430E-03   6.078350384895920E-03
   Mo  -1.626609669803010E+00   2.811780633117020E+00  -1.421005848004400E-02
   Mo   3.257919702460570E+00   6.707373808976510E-04  -1.573458727231030E-02
   Mo   1.620421263772970E+00   2.818443567017120E+00   2.493061609708870E-02
    S  -1.554919524538240E-03   1.910289011210230E+00   1.245122887982760E+00
    S  -1.683270303678060E+00   4.729954912230030E+00   1.243653258119450E+00
    S   3.224164386230430E+00   1.888771740155930E+00   1.250054985963920E+00
    S   1.629735161920660E+00   4.723341166649490E+00   1.242967105689920E+00
    S   1.516027919343630E-02   1.859553963486700E+00   3.796470155519190E+00
    S  -1.559229964189840E+00   4.675989490077450E+00   3.798555566374190E+00
    S   3.288512438314660E+00   1.890833755808530E+00   3.805003686775160E+00
    S   1.614767209311320E+00   4.679776973838560E+00   3.794526505361950E+00
