 &control

     calculation = 'scf',

     restart_mode='from_scratch',

     tprnfor=.true.

     prefix='MoS2',

     outdir='./tmp',

     max_seconds = 84500

     disk_io = 'none'

     pseudo_dir = '~/pseudo/',

 /

 &system

    ibrav = 0,

    nat =  24
    ntyp = 2

    ecutwfc = 45 , ecutrho = 360,

    occupations='smearing', smearing='mv', degauss=0.02

/

  &electrons

     diagonalization='david',

     mixing_mode  =  'local-TF',

     mixing_beta = 0.7

   /

   &ions

     ion_dynamics = 'bfgs'

  /

   &cell

     cell_dynamics = 'bfgs',

   /

 ATOMIC_SPECIES

 Mo  95.5     Mo.pw91-n-van.UPF

 S   32.065   S.pw91-van_ak.UPF

K_POINTS {automatic}
  3  6  1 0 0 0
  
CELL_PARAMETERS (angstrom)
   6.819246750388408E+00   0.000000000000000E+00   0.000000000000000E+00
  -1.706774252781749E+00   2.978808213676094E+00   0.000000000000000E+00
   4.341629115579430E-01   9.328686106696521E+00   2.027487140849137E+01
  
ATOMIC_POSITIONS (angstrom)
   Mo   1.470807987920010E-01   4.048723199357640E+00   7.593467319552720E+00
   Mo   3.641622924327750E-01   8.713066250069540E+00   1.773090284281400E+01
   Mo   3.556704172071920E+00   4.048723201553360E+00   7.593467310221670E+00
   Mo   3.773785668461410E+00   8.713066249024800E+00   1.773090284728070E+01
   Mo   7.000061294375021E-02   6.156198541207200E-01   2.543968537167970E+00
   Mo   2.870821187194330E-01   5.279962910135770E+00   1.268140411613150E+01
   Mo   3.479623988929100E+00   6.156198532927279E-01   2.543968541560360E+00
   Mo   3.696705494659800E+00   5.279962909229630E+00   1.268140411923270E+01
    S   1.860967125282970E+00   5.209346242048250E+00   8.610105231593440E+00
    S   2.078048553907370E+00   9.873689274115620E+00   1.874754072871960E+01
    S   5.270590503144110E+00   5.209346239528110E+00   8.610105233470991E+00
    S   5.487671928125120E+00   9.873689275415400E+00   1.874754072805370E+01
    S   5.896348434979760E-02   2.433805046908270E+00   1.527330660357440E+00
    S   2.760449024670850E-01   7.098148079275190E+00   1.166476619490310E+01
    S   3.468586860762690E+00   2.433805045911250E+00   1.527330661041290E+00
    S   3.685668278629540E+00   7.098148078293950E+00   1.166476619583070E+01
    S   5.042915421282910E-02   4.381254300023670E+00   3.576171032676060E+00
    S   2.675107023103670E-01   9.045597453690100E+00   1.371360657911190E+01
    S   3.460052530199350E+00   4.381254298147220E+00   3.576171033399400E+00
    S   3.677134078133380E+00   9.045597452765010E+00   1.371360657928170E+01
    S   1.869501340733980E+00   3.261896873186630E+00   6.561264851193350E+00
    S   2.086582869494920E+00   7.926240016250970E+00   1.669870035307800E+01
    S   5.279124717666570E+00   3.261896869676520E+00   6.561264852171190E+00
    S   5.496206243896030E+00   7.926240017746710E+00   1.669870035305450E+01
