 &control

     calculation = 'relax',

     restart_mode='from_scratch',

     tprnfor=.true.

     prefix='MoS2',

     outdir='./tmp',

     max_seconds = 84500

     disk_io = 'none'

     pseudo_dir = '~/pseudo/',

     nstep= 4

 /

 &system

    ibrav = 0,

    nat =  36
    ntyp = 2

    ecutwfc = 45 , ecutrho = 360,

    occupations='smearing', smearing='mv', degauss=0.02

/

  &electrons

     diagonalization='david',

     mixing_mode  =  'local-TF',

     mixing_beta = 0.7

   /

   &ions

     ion_dynamics = 'bfgs'

  /

   &cell

     cell_dynamics = 'bfgs',

   /

 ATOMIC_SPECIES

 Mo  95.5     Mo.pw91-n-van.UPF

 S   32.065   S.pw91-van_ak.UPF

K_POINTS {automatic}
  3  3  1 0 0 0
  
CELL_PARAMETERS (angstrom)
   6.478451855214020E+00   0.000000000000000E+00   0.000000000000000E+00
   3.245653480270400E+00   5.569693453804120E+00   0.000000000000000E+00
   5.638667449812490E-01   3.030035645284360E+00   2.191748633931050E+01
  
ATOMIC_POSITIONS (angstrom)
   Mo   3.731396417557980E+00   5.819262894506780E+00   6.746224272451190E+00
   Mo   2.211024434170000E+00   2.874891060044130E+00   6.947880236178030E+00
   Mo   5.403074115407810E+00   2.908965035199120E+00   6.821607516518760E+00
   Mo   7.084151450645750E+00   5.618879951264050E+00   6.946813408837890E+00
   Mo   3.843417011521990E+00   3.156180490535830E+00   1.529042671703510E+01
   Mo   5.466293571395970E+00   5.845410372441730E+00   1.540136337099200E+01
   Mo   8.718970952873221E+00   5.846854483430750E+00   1.524312722807010E+01
   Mo   7.029892596939030E+00   3.188907911510180E+00   1.518836468261590E+01
   Mo   5.891552855584710E+00  -7.594982529903320E-02  -9.994327757933261E-02
   Mo   7.557715729785450E+00   2.521700114687360E+00  -2.493622104464310E-01
   Mo   4.290165474657740E+00   2.523012659101770E+00  -3.354654028894590E-01
   Mo   2.688976912657410E+00  -1.611179581045630E-01  -2.793004664749460E-01
    S   1.126411602151480E+00   7.205375283230490E-01   1.413215003940060E+00
    S   2.718253882349730E+00   3.501844226022650E+00   1.267985062577130E+00
    S   5.890841104057740E+00   3.469452991232110E+00   1.252721768988080E+00
    S   4.211973916115570E+00   8.106876086462470E-01   1.398811046586860E+00
    S   5.243784614484400E+00   1.089443682616440E+00   5.178745801294640E+00
    S   7.114112350566730E+00   3.759690171914850E+00   5.313576453974660E+00
    S   3.744765631213200E+00   3.864388610004340E+00   5.301900916053660E+00
    S   2.272448665905610E+00   1.045602223332630E+00   5.314408955879950E+00
    S   8.660609470792300E+00   6.675885983500180E+00   8.433820620479160E+00
    S   7.009881945225740E+00   3.720810775868770E+00   8.501138036297560E+00
    S   3.846465719179360E+00   3.982697918511090E+00   8.400547289598180E+00
    S   5.371647011850590E+00   6.503399504853220E+00   8.429396065326980E+00
    S   7.031650250200340E+00   6.798855968224040E+00   1.375936038393070E+01
    S   5.380298120856310E+00   4.142461859656490E+00   1.367072080114700E+01
    S   2.250486668734670E+00   3.995970588805880E+00   1.364353048587450E+01
    S   3.945885503337410E+00   6.808347771582050E+00   1.376362755808490E+01
    S   7.143177376783530E+00   6.834936954999740E+00   1.684503150501910E+01
    S   5.444891427586250E+00   3.965495349015770E+00   1.697686336108830E+01
    S   2.154534576163870E+00   4.004725751004570E+00   1.685165008495590E+01
    S   3.787579151908360E+00   6.894014495780030E+00   1.682480317930800E+01
    S   1.557226512001810E+00   3.711907233043790E+00   2.009898744983810E+01
    S   3.228772450612320E+00   6.685049317549590E+00   2.017413795891160E+01
    S   6.517769880949740E+00   6.537291822852730E+00   2.010564802865280E+01
    S   4.912406519175490E+00   3.696617066758400E+00   2.000462764954480E+01
