 &control

     calculation = 'relax',

     restart_mode='from_scratch',

     tprnfor=.true.

     prefix='MoS2',

     outdir='./tmp',

     max_seconds = 84500

     disk_io = 'none'

     pseudo_dir = '~/pseudo/',

     nstep= 4

 /

 &system

    ibrav = 0,

    nat =  24
    ntyp = 2

    ecutwfc = 45 , ecutrho = 360,

    occupations='smearing', smearing='mv', degauss=0.02

/

  &electrons

     diagonalization='david',

     mixing_mode  =  'local-TF',

     mixing_beta = 0.7

   /

   &ions

     ion_dynamics = 'bfgs'

  /

   &cell

     cell_dynamics = 'bfgs',

   /

 ATOMIC_SPECIES

 Mo  95.5     Mo.pw91-n-van.UPF

 S   32.065   S.pw91-van_ak.UPF

K_POINTS {automatic}
  3  3  1 0 0 0
  
CELL_PARAMETERS (angstrom)
   6.446527906452300E+00   0.000000000000000E+00   0.000000000000000E+00
   3.180122180711900E+00   5.558432579991730E+00   0.000000000000000E+00
   2.818485123940770E+00   6.277653144431200E-01   1.864044396620690E+01
  
ATOMIC_POSITIONS (angstrom)
   Mo   7.056909634701980E+00   6.220338240447320E-01   3.884742271409540E+00
   Mo   3.835171724181210E+00   6.667467543235960E-01   4.004011147442290E+00
   Mo   5.429019589482730E+00   3.430458215303620E+00   3.992478865878070E+00
   Mo   8.609026861630850E+00   3.427421824301980E+00   3.896436491565630E+00
   Mo   5.387204982835670E+00   5.513032273635220E+00   1.474359238613610E+01
   Mo   8.656452699998679E+00   5.551636124609290E+00   1.461257978516890E+01
   Mo   7.043601980052760E+00   2.738795739373120E+00   1.472725658305790E+01
   Mo   3.758862930889370E+00   2.744736403434070E+00   1.492583133715930E+01
    S   6.983901764117330E+00   2.493331424389570E+00   2.339244723588620E+00
    S   3.836000711083160E+00   2.504893141865400E+00   2.392787647625940E+00
    S   2.286715160193800E+00  -2.956364350025790E-01   2.372621142021460E+00
    S   5.386568682483610E+00  -2.606260106756040E-01   2.343797123314050E+00
    S   7.061072671500590E+00   6.310553015990250E+00   1.631239128747380E+01
    S   1.020240451099110E+01   6.433933539454590E+00   1.629440957783230E+01
    S   8.546023536796991E+00   3.762639472993000E+00   1.634634704246590E+01
    S   5.440816116660480E+00   3.661897277284370E+00   1.636031032896440E+01
    S   3.767803616649340E+00   1.014825307940590E+00   1.321311309058100E+01
    S   7.121424667055990E+00   9.241991349114010E-01   1.307290514415210E+01
    S   8.703945587764160E+00   3.632852152099920E+00   1.317407372767120E+01
    S   5.328095665947300E+00   3.591141788075600E+00   1.324818213993010E+01
    S   7.062655956658180E+00   2.449544675630640E+00   5.502759454109980E+00
    S   3.772539318777300E+00   2.565278976444930E+00   5.537452644367580E+00
    S   5.383250422772410E+00   5.305989626687870E+00   5.533441117880800E+00
    S   8.664198437870141E+00   5.262776268428560E+00   5.503590413698330E+00
