 &control

     calculation = 'scf',

     restart_mode='from_scratch',

     tprnfor=.true.

     prefix='MoS2',

     outdir='./tmp',

     max_seconds = 84500

     disk_io = 'none'

     nstep= 12

     pseudo_dir = '~/pseudo/',

 /

 &system

    ibrav = 0,

    nat =  33
    ntyp = 2

    ecutwfc = 45 , ecutrho = 360,

    occupations='smearing', smearing='mv', degauss=0.02

/

  &electrons

     diagonalization='david',

     mixing_mode  =  'local-TF',

     mixing_beta = 0.7

   /

   &ions

     ion_dynamics = 'bfgs'

  /

   &cell

     cell_dynamics = 'bfgs',

   /

 ATOMIC_SPECIES

 Mo  95.5     Mo.pw91-n-van.UPF

 S   32.065   S.pw91-van_ak.UPF

K_POINTS {automatic}
  2  2  2 0 0 0
  
CELL_PARAMETERS (angstrom)
   8.854121133840490E+00   0.000000000000000E+00   0.000000000000000E+00
   8.791856630134800E-01   9.495818480404040E+00   0.000000000000000E+00
   2.332726954559510E+00   1.584770258511380E+00   1.004711284402830E+01
  
ATOMIC_POSITIONS (angstrom)
   Mo   6.422304033325390E+00   8.179612165700989E+00   3.560492444546490E+00
   Mo   1.057736083907040E+01   8.362970594141929E+00   8.463052924037390E+00
   Mo   2.116054970439570E+00   1.448359543051450E+00   4.629510473959390E+00
   Mo   7.250971707855260E+00   1.750318006943320E+00   6.341667957625570E+00
   Mo   8.046813085509481E+00   6.774616540570380E+00   1.791360587860250E+00
   Mo   1.311310991129090E+00   2.792538632187610E+00   2.359337368235950E+00
   Mo   4.520448240047800E+00   8.750921406176300E+00   7.693464490866570E+00
   Mo   7.393840066809000E+00   8.772151101638290E+00   7.343775681488260E+00
   Mo   9.222566118789789E+00   4.676541575880800E+00   3.755262895885090E-01
   Mo   5.799481885039050E+00   7.795045492477560E+00   5.926465992117830E-01
   Mo   8.528370611033930E+00   3.786943069807840E+00   4.500713848732080E+00
    S   6.243233648624490E+00   8.147837353711440E+00   9.385064610246920E+00
    S   5.748637026621930E+00   7.516751632753980E+00   5.962519736465110E+00
    S   2.631907525384260E+00   9.032456707481410E+00   6.144971618204850E+00
    S   8.996816764568090E+00   6.999632701705380E+00   7.133733721636020E+00
    S   3.395228303715780E+00   6.593073165539490E+00   8.199751080417970E+00
    S   9.518596307357800E+00   2.552260043649440E+00   6.357689548082140E+00
    S   2.447193089730810E+00   3.429883013653500E+00   4.547773550530020E-01
    S   6.289971980388260E+00   3.648288206058310E+00   5.347502742003430E+00
    S   7.794943836514560E+00   6.133512222996990E+00   4.000764357037020E+00
    S   1.499013629921140E+00   6.309325137890340E+00   1.579543543307420E+00
    S   6.848272668402440E+00   5.527590756442000E+00   1.516303462305560E-01
    S   4.457472915204820E+00   7.327125317149910E+00   2.540154219665740E+00
    S   2.177311697313510E+00   3.851320622946160E+00   4.256558924074910E+00
    S   1.285710431461990E+00   4.917213774565010E-01   2.732106109888560E+00
    S   7.939025366096810E+00   3.430076201312560E+00   2.187249306437420E+00
    S   4.351023663828500E+00   7.916912595818190E-01   4.040614609842640E+00
    S   5.045088897896430E+00   1.257891687073140E+00   7.206294169671440E+00
    S   3.282102929945110E+00   1.012466326713310E+01   9.196914071775600E+00
    S   8.222557470375460E+00   9.348738597499461E+00   5.001901229721770E+00
    S   9.025906223011081E+00   1.031860420184670E+01   8.472929400133131E+00
    S   7.584833039245240E+00   9.096166770471720E+00   1.645009586693920E+00
    S   3.692445234742170E+00   4.073479071297940E-01   2.811758725218120E-01
