 &control

     calculation = 'scf',

     restart_mode='from_scratch',

     tprnfor=.true.

     prefix='MoS2',

     outdir='./tmp',

     max_seconds = 84500

     disk_io = 'none'

     pseudo_dir = '~/pseudo/',

 /

 &system

    ibrav = 0,

    nat =  24
    ntyp = 2

    ecutwfc = 45 , ecutrho = 360,

    occupations='smearing', smearing='mv', degauss=0.02

/

  &electrons

     diagonalization='david',

     mixing_mode  =  'local-TF',

     mixing_beta = 0.7

   /

   &ions

     ion_dynamics = 'bfgs'

  /

   &cell

     cell_dynamics = 'bfgs',

   /

 ATOMIC_SPECIES

 Mo  95.5     Mo.pw91-n-van.UPF

 S   32.065   S.pw91-van_ak.UPF

K_POINTS {automatic}
  3  6  1 0 0 0
  
CELL_PARAMETERS (angstrom)
   6.837458272314506E+00   0.000000000000000E+00   0.000000000000000E+00
  -1.696043711337632E+00   2.957628239418052E+00   0.000000000000000E+00
  -6.271083362706326E-01  -7.592105135555800E+00   2.400067407855130E+01
  
ATOMIC_POSITIONS (angstrom)
   Mo   2.620889118462890E+00   7.024373693623850E-01   3.195895346632060E+00
   Mo  -1.577247376520610E+00  -3.562452062324280E+00   1.601101069755450E+01
   Mo   5.923897595033190E+00   6.823313636913070E-01   3.421643453882350E+00
   Mo   1.820945489855050E+00  -3.529099132514650E+00   1.540341181900570E+01
   Mo   4.345872132499900E-01  -1.247644745498940E+00   8.289908293921970E+00
   Mo   7.533315249075510E-01  -5.196166192756980E+00   2.101935025728690E+01
   Mo   3.845838142729540E+00  -1.375702032195160E+00   8.091523348047820E+00
   Mo   4.164492205181520E+00  -5.140268544771800E+00   2.060819521409110E+01
    S   4.236436305990090E+00   1.685872803535210E+00   4.349768653007570E+00
    S   1.724594750895680E-01  -2.811546888017430E+00   1.655845414635320E+01
    S   7.792151907540440E+00   1.756622555552320E+00   4.285278990288270E+00
    S   3.326129649005370E+00  -2.703778305441270E+00   1.676760670992180E+01
    S  -9.732485296132050E-01  -2.697936044581540E-01   9.392600376133220E+00
    S  -9.589020186455079E-01  -4.044090067385710E+00   2.189885894362180E+01
    S   2.476623524267590E+00  -2.895547611343810E-01   9.220256408122021E+00
    S   2.169647491821820E+00  -3.993248013105190E+00   2.178262093029840E+01
    S   4.439731441279210E+00  -2.212436061714930E-01   2.216901525711310E+00
    S  -1.268125464899190E-02  -4.798466904525220E+00   1.470467413810220E+01
    S   7.640844063351020E+00  -3.280877038019820E-01   2.279040529946620E+00
    S   3.423663347910170E+00  -4.563609209027500E+00   1.444672618550580E+01
    S  -1.135975160779730E+00  -2.210690080861870E+00   7.240502247947790E+00
    S  -9.836535321693840E-01  -5.979941803627620E+00   1.981109947181140E+01
    S   2.206502030669240E+00  -2.231720849960820E+00   7.228679041927940E+00
    S   2.435703028514230E+00  -5.815225945799860E+00   1.974584009729100E+01
