 &control

     calculation = 'relax',

     restart_mode='from_scratch',

     tprnfor=.true.

     prefix='MoS2',

     outdir='./tmp',

     max_seconds = 84500

     disk_io = 'none'

     pseudo_dir = '~/pseudo/',

     nstep= 4

 /

 &system

    ibrav = 0,

    nat =  36
    ntyp = 2

    ecutwfc = 45 , ecutrho = 360,

    occupations='smearing', smearing='mv', degauss=0.02

/

  &electrons

     diagonalization='david',

     mixing_mode  =  'local-TF',

     mixing_beta = 0.7

   /

   &ions

     ion_dynamics = 'bfgs'

  /

   &cell

     cell_dynamics = 'bfgs',

   /

 ATOMIC_SPECIES

 Mo  95.5     Mo.pw91-n-van.UPF

 S   32.065   S.pw91-van_ak.UPF

K_POINTS {automatic}
  3  3  1 0 0 0
  
CELL_PARAMETERS (angstrom)
   6.450374122114020E+00   0.000000000000000E+00   0.000000000000000E+00
  -3.208482854118060E+00   5.581967195974260E+00   0.000000000000000E+00
  -8.762671971315180E-01  -3.148074683943830E+00   2.334004860500210E+01
  
ATOMIC_POSITIONS (angstrom)
   Mo  -9.125740302423370E-01   2.596258239857260E+00   8.720904334915440E+00
   Mo   2.152902585551640E+00   2.570557320588700E+00   8.704977547207161E+00
   Mo   3.911944532120380E+00  -2.561766158732660E-01   8.669002310466150E+00
   Mo   6.180287273803720E-01  -2.729249913075360E-01   8.652317682899961E+00
   Mo   3.611393395157480E+00  -6.076947465591690E-01   1.571451724934750E+01
   Mo   5.324848142061001E-01  -5.885779976850281E-01   1.572499340289890E+01
   Mo  -1.184143648454980E+00   2.197156132340220E+00   1.559381752132150E+01
   Mo   2.116980644880820E+00   2.022947293951800E+00   1.566745846588340E+01
   Mo   3.521833671088160E+00   1.760530492290510E-01   2.229396978187650E+01
   Mo   3.943765058925440E-01   2.236559039798230E-01   2.229284559797030E+01
   Mo  -1.192351335134350E+00   3.051582656808970E+00   2.228245125211120E+01
   Mo   2.035612261791460E+00   2.828841945459170E+00   2.233761482594140E+01
    S   2.848831281830890E+00   4.215741347575520E+00   6.411307591186270E-01
    S  -3.939092456680430E-01   4.278975339499940E+00   4.773737893137140E-01
    S   1.240859503220800E+00   1.499530953080370E+00   5.183934639630940E-01
    S   4.529166434823920E+00   1.465353537349160E+00   5.098223479271630E-01
    S  -9.743276519242440E-01   7.342438064753400E-01   7.120120307134840E+00
    S   2.243882756162490E+00   6.686592511682220E-01   7.146639558639150E+00
    S   6.440783114368220E-01   3.520660556606820E+00   7.038063680677020E+00
    S  -2.642297946439370E+00   3.375406179458830E+00   7.158045401793860E+00
    S  -9.389132247875350E-01   6.814973949340530E-01   1.027163699804440E+01
    S   2.267397381162240E+00   6.751861500634960E-01   1.022624616775230E+01
    S   6.462069739506380E-01   3.528632933611700E+00   1.033900157352030E+01
    S  -2.614224281174680E+00   3.468081246408560E+00   1.025138527873030E+01
    S  -1.174745245181270E+00   2.051423166131150E-01   1.416097497740190E+01
    S   2.073876902837720E+00   2.876162391452810E-01   1.403943429431150E+01
    S   5.090696521284440E-01   3.126837431187920E+00   1.412847826186450E+01
    S  -2.814114531781810E+00   3.168287363180690E+00   1.409286021888570E+01
    S  -1.185180730015180E+00   4.115607476877600E-01   1.722551956618210E+01
    S   2.082337881356830E+00   1.966582134496090E-01   1.744075879090620E+01
    S   3.713281009478630E+00  -2.539176754006850E+00   1.716656671636000E+01
    S   4.041254628442470E-01  -2.485637004655780E+00   1.722287583015230E+01
    S   1.966105687414550E+00   1.009001610651270E+00   2.060054644684150E+01
    S  -1.298701202024930E+00   1.148373992391280E+00   2.075695507360930E+01
    S   3.109991167042760E-01  -1.678139187046980E+00   2.077405166800630E+01
    S   3.731140765452160E+00  -1.718062524437860E+00   2.074005440135900E+01
