 &control

     calculation = 'relax',

     restart_mode='from_scratch',

     tprnfor=.true.

     prefix='MoS2',

     outdir='./tmp',

     max_seconds = 84500

     disk_io = 'none'

     pseudo_dir = '~/pseudo/',

     nstep= 4

 /

 &system

    ibrav = 0,

    nat =  24
    ntyp = 2

    ecutwfc = 45 , ecutrho = 360,

    occupations='smearing', smearing='mv', degauss=0.02

/

  &electrons

     diagonalization='david',

     mixing_mode  =  'local-TF',

     mixing_beta = 0.7

   /

   &ions

     ion_dynamics = 'bfgs'

  /

   &cell

     cell_dynamics = 'bfgs',

   /

 ATOMIC_SPECIES

 Mo  95.5     Mo.pw91-n-van.UPF

 S   32.065   S.pw91-van_ak.UPF

K_POINTS {automatic}
  3  3  1 0 0 0
  
CELL_PARAMETERS (angstrom)
   6.458555558099070E+00   0.000000000000000E+00   0.000000000000000E+00
   3.273345185289060E+00   5.573798413371840E+00   0.000000000000000E+00
   2.011911686676660E+00   4.879360757702870E-01   1.936746687526150E+01
  
ATOMIC_POSITIONS (angstrom)
   Mo   5.494777784806030E+00   4.722591660401930E+00   3.849477233041080E+00
   Mo   7.077868478692360E+00   1.950481139877720E+00   3.819293777240070E+00
   Mo   3.810127807792900E+00   1.834099107802330E+00   3.858265015986240E+00
   Mo   8.656968372894021E+00   4.649808556316560E+00   3.863812273728000E+00
   Mo   6.279702958457050E+00   1.419368133546660E+00   1.560285473688000E+01
   Mo   4.725738743022660E+00   4.157705072067650E+00   1.558164766017860E+01
   Mo   7.864817564666970E+00   4.106149264294110E+00   1.555678210176520E+01
   Mo   3.035431517899840E+00   1.346402923034170E+00   1.556205493382290E+01
    S   7.099678475997970E+00   5.586291066058380E+00   2.237291101046960E+00
    S   2.264803795829870E+00   2.825994512580800E+00   2.240277981951300E+00
    S   5.400332762444950E+00   2.851063056770740E+00   2.288166188354070E+00
    S   3.831673310073840E+00   5.625292937492140E+00   2.306145225748460E+00
    S   7.883117557294250E+00   4.482450924572220E-01   1.715569773182830E+01
    S   6.298630949887590E+00   3.250214780499100E+00   1.721843890144220E+01
    S   9.529222411059081E+00   3.212769037476410E+00   1.712419257883640E+01
    S   4.645657693526960E+00   4.072372896708740E-01   1.712820707179980E+01
    S   7.856609003630940E+00   4.531048543267530E-01   1.400452251592450E+01
    S   6.258045197539550E+00   3.211089253579210E+00   1.395103686072380E+01
    S   9.544671744028850E+00   3.232079630080210E+00   1.402515157235530E+01
    S   4.684619548234920E+00   4.169306886286550E-01   1.403105808702070E+01
    S   7.095193770031050E+00   5.583242660644850E+00   5.478385112237620E+00
    S   2.236523791540170E+00   2.787999777451790E+00   5.438596729523910E+00
    S   5.445332847144910E+00   2.843676467180350E+00   5.383417033146170E+00
    S   3.844552126457380E+00   5.654188154467360E+00   5.380612264985290E+00
