 &control

     calculation = 'scf',

     restart_mode='from_scratch',

     tprnfor=.true.

     prefix='MoS2',

     outdir='./tmp',

     max_seconds = 84500

     disk_io = 'none'

     pseudo_dir = '~/pseudo/',

 /

 &system

    ibrav = 0,

    nat =  36
    ntyp = 2

    ecutwfc = 45 , ecutrho = 360,

    occupations='smearing', smearing='mv', degauss=0.02

/

  &electrons

     diagonalization='david',

     mixing_mode  =  'local-TF',

     mixing_beta = 0.7

   /

   &ions

     ion_dynamics = 'bfgs'

  /

   &cell

     cell_dynamics = 'bfgs',

   /

 ATOMIC_SPECIES

 Mo  95.5     Mo.pw91-n-van.UPF

 S   32.065   S.pw91-van_ak.UPF

K_POINTS {automatic}
  3  3  1 0 0 0
  
CELL_PARAMETERS (angstrom)
   6.699661500000000E+00   0.000000000000000E+00   0.000000000000000E+00
  -3.349831800000000E+00   5.802077400000001E+00   0.000000000000000E+00
   0.000000000000000E+00   0.000000000000000E+00   3.393443130000000E+01
  
ATOMIC_POSITIONS (angstrom)
   Mo   1.670658147488230E+00   1.061961955814070E+00   3.108627359234060E-02
   Mo  -2.076016841378550E-02   3.858926497084330E+00   9.739468708141399E-02
   Mo   4.960853342607340E+00   9.676884146972660E-01  -7.692244835426870E-02
   Mo   3.389862730835090E+00   3.909610173346860E+00  -8.167204644280400E-02
   Mo  -2.799772429121620E-02   1.880232229832060E+00   2.620247620484770E+01
   Mo  -1.617879178175960E+00   4.898438979597670E+00   2.607070972452600E+01
   Mo   3.367324540815030E+00   1.949155211950590E+00   2.622025112395230E+01
   Mo   1.654293263334590E+00   4.769127811413660E+00   2.605066435157670E+01
   Mo  -3.193051999362010E-02   1.891534109856830E+00   7.726763495454740E+00
   Mo  -1.642724322245190E+00   4.830730220131020E+00   7.906045378516400E+00
   Mo   3.342975121392160E+00   1.937303806718580E+00   7.911179572353120E+00
   Mo   1.656989256346460E+00   4.933248579340980E+00   7.805237802931440E+00
    S  -3.058784737097740E-02   1.902804888396220E+00   1.733081867338540E+00
    S  -1.667446783391490E+00   4.740570358656980E+00   1.674995911081100E+00
    S   3.391367082874790E+00   2.011209581695010E+00   1.691278249920700E+00
    S   1.660629025481100E+00   4.823408633106830E+00   1.741424861403020E+00
    S   1.595189721764820E+00   9.892440960788080E-01   2.782218665035580E+01
    S  -5.951109090914190E-02   3.834069820116850E+00   2.783889386507960E+01
    S   4.932969612879900E+00   9.659990537085460E-01   2.780576389620890E+01
    S   3.324238641699700E+00   3.935206429186890E+00   2.783560275322510E+01
    S   1.588229906999740E+00   9.720419252765450E-01   9.405008561872579E+00
    S   1.622101784443360E-02   3.860385869317280E+00   9.552985290112780E+00
    S   5.039314492701310E+00   8.867624247085910E-01   9.512468015393370E+00
    S   3.321896701921020E+00   3.880760153183400E+00   9.549781706892750E+00
    S  -1.560499419655150E-02   1.944576461763010E+00   3.238950244227440E+01
    S  -1.630786330703780E+00   4.892091126418170E+00   3.222200673051730E+01
    S   3.282433039243760E+00   1.918191601993670E+00   3.236345222612800E+01
    S   1.681365620329930E+00   4.834693911330270E+00   3.219150130374090E+01
    S   1.774899665024740E+00   9.655120292956660E-01   2.447873188358470E+01
    S  -3.379138418089690E-02   3.871319183558760E+00   2.457388423955680E+01
    S   5.075434102957220E+00   8.918991807339280E-01   2.443752761313590E+01
    S   3.428092221290470E+00   3.873849740491110E+00   2.441784249080900E+01
    S   1.630678591094660E+00   9.357390381599840E-01   6.084309943562830E+00
    S  -6.391160864834280E-03   3.810606463909680E+00   6.249967964139520E+00
    S   5.024898012140250E+00   9.666073559444500E-01   6.268362449196060E+00
    S   3.347290722274360E+00   3.966530502390640E+00   6.185546472030250E+00
