 &control

     calculation = 'scf',

     restart_mode='from_scratch',

     tprnfor=.true.

     prefix='MoS2',

     outdir='./tmp',

     max_seconds = 84500

     disk_io = 'none'

     pseudo_dir = '~/pseudo/',

 /

 &system

    ibrav = 0,

    nat =  24
    ntyp = 2

    ecutwfc = 45 , ecutrho = 360,

    occupations='smearing', smearing='mv', degauss=0.02

/

  &electrons

     diagonalization='david',

     mixing_mode  =  'local-TF',

     mixing_beta = 0.7

   /

   &ions

     ion_dynamics = 'bfgs'

  /

   &cell

     cell_dynamics = 'bfgs',

   /

 ATOMIC_SPECIES

 Mo  95.5     Mo.pw91-n-van.UPF

 S   32.065   S.pw91-van_ak.UPF

K_POINTS {automatic}
  3  6  1 0 0 0
  
CELL_PARAMETERS (angstrom)
   6.811414364953683E+00   0.000000000000000E+00   0.000000000000000E+00
  -1.679465431861654E+00   2.957672539556742E+00   0.000000000000000E+00
  -5.723029591605249E-01  -7.971443731866178E+00   2.395825238749930E+01
  
ATOMIC_POSITIONS (angstrom)
   Mo   2.683860108892180E+00   6.424983984566260E-01   3.187347770191440E+00
   Mo  -1.548514287750330E+00  -3.814668277612840E+00   1.600873549844130E+01
   Mo   5.958267332353080E+00   6.542794063256410E-01   3.396612835846980E+00
   Mo   1.826681616275730E+00  -3.779924802378250E+00   1.536990358590170E+01
   Mo   4.418467508729310E-01  -1.377273472491600E+00   8.278722859301970E+00
   Mo   7.907478684548580E-01  -5.521956019770620E+00   2.098220910484320E+01
   Mo   3.840200833188770E+00  -1.515704588048410E+00   8.083265930048110E+00
   Mo   4.191716085435720E+00  -5.470090894720150E+00   2.060022982602400E+01
    S   4.303497082532060E+00   1.628655411585860E+00   4.333834841003740E+00
    S   2.112465307074980E-01  -3.065165195124310E+00   1.652951019876740E+01
    S   7.835205587146290E+00   1.714517836138940E+00   4.282727521079290E+00
    S   3.321928245984530E+00  -2.950726156537850E+00   1.675137286596970E+01
    S  -9.585093431174579E-01  -4.194642280311240E-01   9.359469112064991E+00
    S  -9.262363638078090E-01  -4.374454417523780E+00   2.186876051052010E+01
    S   2.471836917419290E+00  -4.327222165053300E-01   9.186348104209630E+00
    S   2.220725343086970E+00  -4.331693902027750E+00   2.173151293125360E+01
    S   4.469898030265370E+00  -2.484130508973100E-01   2.222305925638120E+00
    S   7.918178467067050E-03  -5.047002451413110E+00   1.466328537796950E+01
    S   7.620440835305860E+00  -3.666253704603260E-01   2.275439202241190E+00
    S   3.392499298550160E+00  -4.780903124928400E+00   1.440327594488030E+01
    S  -1.127723483770470E+00  -2.356783034530180E+00   7.221477496316220E+00
    S  -9.201043204634080E-01  -6.301483035062740E+00   1.976073791747120E+01
    S   2.199411446884620E+00  -2.369512432815010E+00   7.222056890033910E+00
    S   2.462688982347430E+00  -6.152883208382670E+00   1.970586853938610E+01
