 &control

     calculation = 'scf',

     restart_mode='from_scratch',

     tprnfor=.true.

     prefix='MoS2',

     outdir='./tmp',

     max_seconds = 84500

     disk_io = 'none'

     pseudo_dir = '~/pseudo/',

 /

 &system

    ibrav = 0,

    nat =  24
    ntyp = 2

    ecutwfc = 45 , ecutrho = 360,

    occupations='smearing', smearing='mv', degauss=0.02

/

  &electrons

     diagonalization='david',

     mixing_mode  =  'local-TF',

     mixing_beta = 0.7

   /

   &ions

     ion_dynamics = 'bfgs'

  /

   &cell

     cell_dynamics = 'bfgs',

   /

 ATOMIC_SPECIES

 Mo  95.5     Mo.pw91-n-van.UPF

 S   32.065   S.pw91-van_ak.UPF

K_POINTS {automatic}
  3  3  2 0 0 0
  
CELL_PARAMETERS (angstrom)
   6.692193089629075E+00   0.000000000000000E+00   0.000000000000000E+00
  -2.912568728064174E+00   5.798458517313062E+00   0.000000000000000E+00
  -1.617906078202796E+00  -2.157792366545762E+00   1.216078777550617E+01
  
ATOMIC_POSITIONS (angstrom)
   Mo  -6.559867278630050E-01  -1.054919562584550E+00   9.645469835944329E+00
   Mo  -1.979537603776160E+00   1.552795057354670E+00   8.932105984414809E+00
   Mo   2.860303327972680E+00  -1.587990779225080E+00   9.173548684726869E+00
   Mo   1.510349844446290E+00   1.471606320625830E+00   8.836782169905160E+00
   Mo  -1.081398662080780E+00   3.594339565335940E-02   3.364407827155140E+00
   Mo  -2.410429100602180E+00   2.965343132038380E+00   2.560574466263510E+00
   Mo   2.120312431196240E+00  -1.937965547688610E-01   3.618345899547510E+00
   Mo   9.442523253142709E-01   2.804734666772760E+00   2.494962867931950E+00
    S   1.034036262433630E+00  -2.213470044036750E+00   1.020219361023670E+01
    S  -4.071320899800350E-01   7.009878070333440E-01   1.034989506367700E+01
    S   4.478811224511140E+00  -2.597001354554090E+00   1.012503809051810E+01
    S   3.113764498426840E+00   2.696609601207820E-01   1.022978100002310E+01
    S  -7.386095487901690E-01   1.674282016678060E+00   1.993112213440150E+00
    S  -4.256793839206740E+00   4.229227902325030E+00   1.652179450727350E+00
    S   2.552883395168130E+00   1.502050173248750E+00   2.125045213212000E+00
    S  -8.528466448161790E-01   4.221658357886820E+00   1.971714071438630E+00
    S   6.422449908700960E-01   1.140409751485130E+00   3.885049476005690E+00
    S  -2.520499295906410E+00   4.308758481411000E+00   4.026737302513670E+00
    S   4.267430907297370E+00   1.394852339959770E+00   4.225589441526970E+00
    S   9.384435847430150E-01   4.447097919909870E+00   4.220484303233020E+00
    S   1.041168254419090E+00  -3.714051158855790E-01   8.095213196622620E+00
    S  -3.196081513660370E-01   2.420492656060580E+00   8.029180961098110E+00
    S   4.680358771318820E+00  -5.270756155964360E-01   8.223752654795190E+00
    S   3.199611099200070E+00   2.468866755243410E+00   7.965242887251190E+00
