 &control

     calculation = 'relax',

     restart_mode='from_scratch',

     tprnfor=.true.

     prefix='MoS2',

     outdir='./tmp',

     max_seconds = 84500

     disk_io = 'none'

     pseudo_dir = '~/pseudo/',

     nstep= 4

 /

 &system

    ibrav = 0,

    nat =  15
    ntyp = 2

    ecutwfc = 45 , ecutrho = 360,

    occupations='smearing', smearing='mv', degauss=0.02

/

  &electrons

     diagonalization='david',

     mixing_mode  =  'local-TF',

     mixing_beta = 0.7

   /

   &ions

     ion_dynamics = 'bfgs'

  /

   &cell

     cell_dynamics = 'bfgs',

   /

 ATOMIC_SPECIES

 Mo  95.5     Mo.pw91-n-van.UPF

 S   32.065   S.pw91-van_ak.UPF

K_POINTS {automatic}
  3  3  2 0 0 0
  
CELL_PARAMETERS (angstrom)
   6.312876125452400E+00   0.000000000000000E+00   0.000000000000000E+00
  -4.976476766706050E-01   6.347644665201610E+00   0.000000000000000E+00
  -1.940853920743640E+00  -5.639087166316450E-01   9.886578475135650E+00
  
ATOMIC_POSITIONS (angstrom)
   Mo   2.079165746088390E+00   2.085719221428310E+00   1.106236770160840E+00
   Mo   1.506690117156650E+00   2.987618683921850E+00   5.985098277202470E+00
   Mo  -1.055617721206630E+00   3.582577671302260E+00   9.824570129441041E+00
   Mo  -2.310275580432250E-02   1.001213862223770E+00   2.089601042275690E+00
   Mo   5.183085738593230E+00   5.082729539611030E+00   1.121805884258470E+00
    S   3.266281423533880E+00   2.918431610674270E+00   8.520028727495101E+00
    S   1.034570001918940E+00   1.000367696362710E-01   2.928796626038550E-01
    S  -7.097471503328170E-03   3.198356924921120E+00   4.299007689977860E+00
    S   7.939887380288700E-01   2.140896516067260E+00   8.030404413692681E+00
    S   3.595751356239250E-01   3.405604034803130E+00   1.951819436304700E+00
    S   1.818865316953060E+00   1.638585157038240E+00   3.585259525283240E+00
    S   4.008561897709650E+00   6.364287013731620E-01   1.600034721198690E+00
    S   1.537432896163830E+00   4.592206479105100E+00   7.859881435116860E+00
    S  -7.403752241049750E-01   5.475252371918210E+00   3.498597989421850E+00
    S   3.249181567509690E+00   3.945109111973610E+00   1.844622904543090E-01
