 &control

     calculation = 'scf',

     restart_mode='from_scratch',

     tprnfor=.true.

     prefix='MoS2',

     outdir='./tmp',

     max_seconds = 84500

     disk_io = 'none'

     pseudo_dir = '~/pseudo/',

 /

 &system

    ibrav = 0,

    nat =  24
    ntyp = 2

    ecutwfc = 45 , ecutrho = 360,

    occupations='smearing', smearing='mv', degauss=0.02

/

  &electrons

     diagonalization='david',

     mixing_mode  =  'local-TF',

     mixing_beta = 0.7

   /

   &ions

     ion_dynamics = 'bfgs'

  /

   &cell

     cell_dynamics = 'bfgs',

   /

 ATOMIC_SPECIES

 Mo  95.5     Mo.pw91-n-van.UPF

 S   32.065   S.pw91-van_ak.UPF

K_POINTS {automatic}
  3  3  1 0 0 0
  
CELL_PARAMETERS (angstrom)
   7.162001491550944E+00   0.000000000000000E+00   0.000000000000000E+00
  -3.760343878522460E+00   6.075274619955093E+00   0.000000000000000E+00
  -4.250382453354718E-01   6.490654130693173E-01   2.108438305442058E+01
  
ATOMIC_POSITIONS (angstrom)
   Mo   2.820234322928440E+00   1.108628614903860E+00   3.733299299305860E+00
   Mo   2.693765784747050E-01   3.594585855019690E+00   2.909084921739000E+00
   Mo   6.217703292863330E+00   6.859016321953140E-01   3.149946100819730E+00
   Mo   4.198304492854530E+00   4.046279636978250E+00   3.625298914194620E+00
   Mo  -1.210043265862890E+00   3.101429887374290E+00   1.793568209382300E+01
   Mo  -3.169790231003000E+00   6.023028166280680E+00   1.747240048252190E+01
   Mo   2.156458772292410E+00   2.943039665406000E+00   1.763105944139600E+01
   Mo   5.680143530177270E-01   6.131181921101990E+00   1.773120678339840E+01
    S  -1.170871596584270E+00   2.620684934508870E+00   4.284852110204840E+00
    S  -3.194471890586790E+00   5.991101698294340E+00   4.392289736261890E+00
    S   2.710306857911760E+00   2.956503207966510E+00   4.703794374484450E+00
    S   5.073704228685210E-01   5.487066777247460E+00   4.358783099865990E+00
    S   5.224412677138820E-01   1.911555516054890E+00   1.890052719240520E+01
    S  -1.278108745885440E+00   5.004922724910020E+00   1.868313130912810E+01
    S   4.092227745545880E+00   1.704861461691890E+00   1.866897043264550E+01
    S   2.187297099493450E+00   4.992146702323730E+00   1.872071751482610E+01
    S   8.250085632962830E-01   1.832058159999200E+00   2.341233137495360E+00
    S  -1.495639356655380E+00   4.328197418438010E+00   2.190166280879020E+00
    S   4.345289743125650E+00   1.657806485875290E+00   2.307517190350440E+00
    S   2.334260142514950E+00   4.750788197051340E+00   2.484981658424950E+00
    S   2.288090342808050E+00   9.266454953469140E-01   1.662748922382290E+01
    S   6.463841653023580E-01   3.754196501220140E+00   1.682191830531660E+01
    S   6.210305328857870E+00   7.472567746793420E-01   1.671106479053840E+01
    S   4.395503119646560E+00   3.655497738146100E+00   1.677673644973810E+01
