 &control

     calculation = 'scf',

     restart_mode='from_scratch',

     tprnfor=.true.

     prefix='MoS2',

     outdir='./tmp',

     max_seconds = 84500

     disk_io = 'none'

     pseudo_dir = '~/pseudo/',

 /

 &system

    ibrav = 0,

    nat =  24
    ntyp = 2

    ecutwfc = 45 , ecutrho = 360,

    occupations='smearing', smearing='mv', degauss=0.02

/

  &electrons

     diagonalization='david',

     mixing_mode  =  'local-TF',

     mixing_beta = 0.7

   /

   &ions

     ion_dynamics = 'bfgs'

  /

   &cell

     cell_dynamics = 'bfgs',

   /

 ATOMIC_SPECIES

 Mo  95.5     Mo.pw91-n-van.UPF

 S   32.065   S.pw91-van_ak.UPF

K_POINTS {automatic}
  3  5  1 0 0 0
  
CELL_PARAMETERS (angstrom)
   6.793635041663538E+00   0.000000000000000E+00   0.000000000000000E+00
  -1.679478865114519E+00   2.952569035137611E+00   0.000000000000000E+00
  -5.634937740250068E-01  -3.262932009934748E-01   2.398705028114744E+01
  
ATOMIC_POSITIONS (angstrom)
   Mo   1.495536811250460E+00   1.649207052988770E+00   3.096570528454710E+00
   Mo  -1.224845045143130E+00   1.090452537492820E+00   1.536037460325860E+01
   Mo   5.170155896300920E+00   1.467586284858940E+00   3.465270446830920E+00
   Mo   2.222935331403840E+00   9.949890828133020E-01   1.578937546122870E+01
   Mo   8.451467462274050E-01   1.405173606749290E+00   8.456684538228609E+00
   Mo   9.767331094418020E-01   1.255144372384370E+00   2.105230360457980E+01
   Mo   4.181252535877220E+00   1.420766594080670E+00   8.232513584795511E+00
   Mo   4.257779507952230E+00   1.217699709587000E+00   2.058056628708030E+01
    S   3.646073148124810E+00   2.424140656578250E+00   4.364871402592970E+00
    S   5.270758081894530E-01   2.115632349771410E+00   1.651340615595700E+01
    S   6.906164364084970E+00   2.466012827100010E+00   4.275275312832100E+00
    S   4.082605343667390E+00   1.985636274155530E+00   1.649618645767520E+01
    S  -7.968034661691970E-01   2.370079770817000E+00   9.454311666070019E+00
    S  -7.777865337905250E-01   2.286931230837800E+00   2.192585378494680E+01
    S   2.530823334650520E+00   2.378548269193830E+00   9.427862210253171E+00
    S   2.631352695065620E+00   2.313400366820950E+00   2.178542651172660E+01
    S   3.297386582684340E+00   5.734410316482760E-01   2.315854274708260E+00
    S   5.692983240181690E-01   1.306621238918640E-01   1.444585595778070E+01
    S   6.762040806974000E+00   5.446450061450830E-01   2.130845652212650E+00
    S   3.970763155895490E+00   1.380364158686880E-01   1.449426331431210E+01
    S  -7.611689636638080E-01   4.030874556883120E-01   7.344165069362410E+00
    S  -8.218062693380340E-01   2.284975531306110E-01   1.969278344662260E+01
    S   2.635172360844470E+00   3.474775752895930E-01   7.292768564917110E+00
    S   2.560017962604840E+00   3.121459574197310E-01   1.976575660748810E+01
