 &control

     calculation = 'scf',

     restart_mode='from_scratch',

     tprnfor=.true.

     prefix='MoS2',

     outdir='./tmp',

     max_seconds = 84500

     disk_io = 'none'

     pseudo_dir = '~/pseudo/',

 /

 &system

    ibrav = 0,

    nat =  24
    ntyp = 2

    ecutwfc = 45 , ecutrho = 360,

    occupations='smearing', smearing='mv', degauss=0.02

/

  &electrons

     diagonalization='david',

     mixing_mode  =  'local-TF',

     mixing_beta = 0.7

   /

   &ions

     ion_dynamics = 'bfgs'

  /

   &cell

     cell_dynamics = 'bfgs',

   /

 ATOMIC_SPECIES

 Mo  95.5     Mo.pw91-n-van.UPF

 S   32.065   S.pw91-van_ak.UPF

K_POINTS {automatic}
  3  3  1 0 0 0
  
CELL_PARAMETERS (angstrom)
   6.868490160622914E+00   0.000000000000000E+00   0.000000000000000E+00
  -3.412262632310629E+00   5.879373437754199E+00   0.000000000000000E+00
   8.442006123241936E-01  -7.284744667656844E-01   2.140539740824848E+01
  
ATOMIC_POSITIONS (angstrom)
   Mo   2.770648603046360E+00   4.489579021221950E-01   3.469304872364670E+00
   Mo   1.015476858762900E+00   3.491224837865550E+00   3.795736344527180E+00
   Mo   6.265707658894500E+00   5.438860231562770E-01   3.575103910640390E+00
   Mo   4.443954979785090E+00   3.484707362623570E+00   3.478893772435910E+00
   Mo  -2.030794538317200E-01   1.674794765566090E+00   1.786821078962100E+01
   Mo  -1.875207323711910E+00   4.614930833679880E+00   1.773327995387040E+01
   Mo   3.262766034591660E+00   1.712924927634550E+00   1.776404086831580E+01
   Mo   1.542041930264310E+00   4.592259189170350E+00   1.794260326394350E+01
    S  -6.591297257501439E-01   2.338350577645960E+00   4.638160226439590E+00
    S  -2.376702098065890E+00   5.369090814588740E+00   4.577157061690120E+00
    S   2.734412672853860E+00   2.397831985467530E+00   4.579325675341210E+00
    S   9.967713521818110E-01   5.392704725783850E+00   4.624813975033520E+00
    S   1.515138598917890E+00   8.367341329368270E-01   1.884515025552350E+01
    S  -2.586638811477630E-01   3.765528760348650E+00   1.883594627613800E+01
    S   4.949139382727760E+00   8.339923897476760E-01   1.884726322475970E+01
    S   3.198228889094180E+00   3.759607390937280E+00   1.888582451241390E+01
    S   1.120042113040620E+00   1.369467777450170E+00   2.581925386855770E+00
    S  -6.206556894401420E-01   4.297978183754570E+00   2.518460018645800E+00
    S   4.552338047323410E+00   1.491016625792990E+00   2.503937765889660E+00
    S   2.816093757230520E+00   4.332945000776940E+00   2.604440931783420E+00
    S   3.248439642110980E+00  -2.286991425007490E-01   1.679858628091370E+01
    S   1.531215723535090E+00   2.723576434205530E+00   1.681966758402720E+01
    S   6.681541859580330E+00  -1.497062813975550E-01   1.678834798841810E+01
    S   4.934020990899240E+00   2.756592499107240E+00   1.678300382687220E+01
