 &control

     calculation = 'scf',

     restart_mode='from_scratch',

     tprnfor=.true.

     prefix='MoS2',

     outdir='./tmp',

     max_seconds = 84500

     disk_io = 'none'

     pseudo_dir = '~/pseudo/',

 /

 &system

    ibrav = 0,

    nat =  24
    ntyp = 2

    ecutwfc = 45 , ecutrho = 360,

    occupations='smearing', smearing='mv', degauss=0.02

/

  &electrons

     diagonalization='david',

     mixing_mode  =  'local-TF',

     mixing_beta = 0.7

   /

   &ions

     ion_dynamics = 'bfgs'

  /

   &cell

     cell_dynamics = 'bfgs',

   /

 ATOMIC_SPECIES

 Mo  95.5     Mo.pw91-n-van.UPF

 S   32.065   S.pw91-van_ak.UPF

K_POINTS {automatic}
  3  3  1 0 0 0
  
CELL_PARAMETERS (angstrom)
   6.540147800000000E+00   0.000000000000000E+00   0.000000000000000E+00
  -3.270073900000000E+00   5.663932700000000E+00   0.000000000000000E+00
   0.000000000000000E+00   0.000000000000000E+00   1.525097910000000E+01
  
ATOMIC_POSITIONS (angstrom)
   Mo  -4.653175292414170E-02   1.938597446198680E+00   4.000554975718370E+00
   Mo  -1.447529010231840E+00   4.779025259928620E+00   3.849482572676620E+00
   Mo   3.120957321647440E+00   1.763496513341060E+00   3.765111110175620E+00
   Mo   1.619926366487240E+00   4.818629444110570E+00   3.639444247983360E+00
   Mo   1.743025734648770E+00   1.059224402435620E+00   1.131551794448920E+01
   Mo  -4.195049984786470E-02   3.645043778638020E+00   1.129296738881950E+01
   Mo   4.895338155974580E+00   9.276794646910870E-01   1.163732852232260E+01
   Mo   3.297888749996580E+00   3.754642584737890E+00   1.163514100488340E+01
    S   1.486019902823830E+00   9.566030863237360E-01   5.549545406966440E+00
    S  -1.928178092101080E-01   3.815379171789510E+00   5.452336819279130E+00
    S   4.873648462065090E+00   7.963848153261880E-01   5.547989060046050E+00
    S   3.154407315437400E+00   3.771566274519620E+00   5.253651253382840E+00
    S  -1.239879770256830E-01   1.936711915026890E+00   1.289306827558270E+01
    S  -1.567194406105150E+00   4.818626913905220E+00   1.320242513140630E+01
    S   3.248954805545730E+00   1.884359798471080E+00   1.284339171781330E+01
    S   1.629496034051270E+00   4.716815776922780E+00   1.324213958825840E+01
    S   1.610142650900230E+00   9.674537369627110E-01   2.405790434655180E+00
    S   1.600707288032790E-01   3.688304457683500E+00   2.126912815572060E+00
    S   4.841587686663670E+00   9.819905414003850E-01   2.022941650544410E+00
    S   3.401259737509360E+00   3.690305301269420E+00   2.084420267487230E+00
    S   9.893390001728369E-03   1.925501899715500E+00   9.638028757005850E+00
    S  -1.802560725486030E+00   4.637048492950880E+00   9.905393323074099E+00
    S   3.294755304665700E+00   2.084736534589400E+00   9.860247602568300E+00
    S   1.804914186360250E+00   4.674498100690360E+00   9.738961060267190E+00
