 &control

     calculation = 'scf',

     restart_mode='from_scratch',

     tprnfor=.true.

     prefix='MoS2',

     outdir='./tmp',

     max_seconds = 84500

     disk_io = 'none'

     pseudo_dir = '~/pseudo/',

 /

 &system

    ibrav = 0,

    nat =  24
    ntyp = 2

    ecutwfc = 45 , ecutrho = 360,

    occupations='smearing', smearing='mv', degauss=0.02

/

  &electrons

     diagonalization='david',

     mixing_mode  =  'local-TF',

     mixing_beta = 0.7

   /

   &ions

     ion_dynamics = 'bfgs'

  /

   &cell

     cell_dynamics = 'bfgs',

   /

 ATOMIC_SPECIES

 Mo  95.5     Mo.pw91-n-van.UPF

 S   32.065   S.pw91-van_ak.UPF

K_POINTS {automatic}
  3  6  1 0 0 0
  
CELL_PARAMETERS (angstrom)
   6.816900083278443E+00   0.000000000000000E+00   0.000000000000000E+00
  -1.745298652505156E+00   2.960521513391638E+00   0.000000000000000E+00
  -5.432696544151440E-01   6.675921437446129E+00   2.237826122864334E+01
  
ATOMIC_POSITIONS (angstrom)
   Mo   5.284862448831620E-01   2.206929566599300E+00   2.826565954353470E+00
   Mo  -6.557338065465700E-01   5.492195003212820E+00   1.385614758291650E+01
   Mo   3.965842112033680E+00   2.221999568002190E+00   2.983491096170220E+00
   Mo   2.798058336937740E+00   5.489669006473200E+00   1.451264340845500E+01
   Mo   1.328674374679180E+00   4.145962256490610E+00   8.216884220688231E+00
   Mo   1.079230954507290E+00   7.502283510258790E+00   1.964264273035760E+01
   Mo   4.724710398682650E+00   4.135047621936270E+00   8.080498201532640E+00
   Mo   4.495444239090070E+00   7.490898397021150E+00   1.935878742302660E+01
    S   2.067994449666930E+00   3.355324907707080E+00   3.908461846407840E+00
    S   1.120241322944640E+00   6.525585765397360E+00   1.535206199895020E+01
    S   5.479810093770610E+00   3.325627435735190E+00   3.962099328943970E+00
    S   4.485349790885450E+00   6.647896063266580E+00   1.509603491715260E+01
    S  -4.927519814700560E-01   4.893554133823820E+00   9.208974336060200E+00
    S  -6.488685754837630E-01   8.280724777665011E+00   2.057524827270360E+01
    S   2.924136511943080E+00   4.910939253758940E+00   9.216344254795899E+00
    S   2.846036655477190E+00   8.227986774709381E+00   2.053699648012990E+01
    S   2.149296395025180E+00   1.324105563277170E+00   1.853870492768480E+00
    S   1.173939987958430E+00   4.619256750497560E+00   1.312826574201770E+01
    S   5.596558796391850E+00   1.430931708123470E+00   1.878582283293710E+00
    S   4.426502222674920E+00   4.642111178814040E+00   1.316557373114000E+01
    S  -4.757883910157030E-01   2.948258832170950E+00   7.105337006281680E+00
    S  -5.520844776889450E-01   6.399896030215270E+00   1.845664993228280E+01
    S   2.930819438499520E+00   2.971184404146790E+00   7.142451746091820E+00
    S   2.892690473697410E+00   6.309733774071550E+00   1.850990605428480E+01
