 &control

     calculation = 'relax',

     restart_mode='from_scratch',

     tprnfor=.true.

     prefix='MoS2',

     outdir='./tmp',

     max_seconds = 84500

     disk_io = 'none'

     pseudo_dir = '~/pseudo/',

     nstep= 4

 /

 &system

    ibrav = 0,

    nat =  15
    ntyp = 2

    ecutwfc = 45 , ecutrho = 360,

    occupations='smearing', smearing='mv', degauss=0.02

/

  &electrons

     diagonalization='david',

     mixing_mode  =  'local-TF',

     mixing_beta = 0.7

   /

   &ions

     ion_dynamics = 'bfgs'

  /

   &cell

     cell_dynamics = 'bfgs',

   /

 ATOMIC_SPECIES

 Mo  95.5     Mo.pw91-n-van.UPF

 S   32.065   S.pw91-van_ak.UPF

K_POINTS {automatic}
  3  3  2 0 0 0
  
CELL_PARAMETERS (angstrom)
   6.903334470567860E+00   0.000000000000000E+00   0.000000000000000E+00
  -1.422614983185110E+00   5.935703376787130E+00   0.000000000000000E+00
  -9.482495335852000E-01  -2.141226512454260E+00   9.165804968896770E+00
  
ATOMIC_POSITIONS (angstrom)
   Mo   2.891085934327190E+00   1.988401605971990E+00   8.890368018838100E+00
   Mo   1.815995110425850E+00   2.428129936465710E+00   3.330277099934200E+00
   Mo   1.422722206346500E+00   5.159083219435240E+00   3.012289953155820E-01
   Mo   3.943616216551300E+00   3.525756472273560E+00   7.010636994467390E+00
   Mo   1.008072753006940E+00  -2.003721416971780E+00   7.330043671912810E+00
    S   2.043919175954870E+00   4.299174103974510E-01   2.270204884447950E+00
    S  -1.679406459000570E+00   2.389272490591380E+00   8.428225759996630E+00
    S   1.646328279821150E-01   2.761671387756610E+00   4.998487734677320E+00
    S   2.896590032590610E+00   4.069207934373530E+00   1.954025953038170E+00
    S   1.792419928803200E+00   3.575059828514900E+00   7.736501295666410E+00
    S   3.605304269252570E+00   2.235086080225940E+00   4.965533392373340E+00
    S   4.083676232602000E+00  -4.287982676942340E-01   8.584165104331641E+00
    S   3.437859211319500E-01   2.977860014287280E+00   1.446184103294890E+00
    S  -4.101048246577590E-01  -6.187304458782150E-01   5.936538125012980E+00
    S   2.588872398351710E+00   1.747706443102010E+00  -1.683613861051050E-01
