 &control

     calculation = 'relax',

     restart_mode='from_scratch',

     tprnfor=.true.

     prefix='MoS2',

     outdir='./tmp',

     max_seconds = 84500

     disk_io = 'none'

     pseudo_dir = '~/pseudo/',

     nstep= 4

 /

 &system

    ibrav = 0,

    nat =  24
    ntyp = 2

    ecutwfc = 45 , ecutrho = 360,

    occupations='smearing', smearing='mv', degauss=0.02

/

  &electrons

     diagonalization='david',

     mixing_mode  =  'local-TF',

     mixing_beta = 0.7

   /

   &ions

     ion_dynamics = 'bfgs'

  /

   &cell

     cell_dynamics = 'bfgs',

   /

 ATOMIC_SPECIES

 Mo  95.5     Mo.pw91-n-van.UPF

 S   32.065   S.pw91-van_ak.UPF

K_POINTS {automatic}
  5  3  1 0 0 0
  
CELL_PARAMETERS (angstrom)
   3.225429892205510E+00   0.000000000000000E+00   0.000000000000000E+00
   3.055052678065189E-03   5.592854243296140E+00   0.000000000000000E+00
  -4.109367105175200E+00  -2.438650388697920E+00   2.817864477632750E+01
  
ATOMIC_POSITIONS (angstrom)
   Mo   1.409126239225710E-01  -1.270323736744630E+00   2.469147593828250E+01
   Mo   8.086354107845160E-01   1.813131219435490E+00   1.095016837525130E+01
   Mo  -1.562925582660390E+00   1.545961330632630E+00   2.465899889344940E+01
   Mo  -7.965901807702920E-01   4.649820597111660E+00   1.092874405811760E+01
   Mo  -2.697279568455850E+00   3.571556371755010E+00   1.728063080877140E+01
   Mo  -1.258372332878170E-02   2.096700372944840E+00   3.435302450805530E+00
   Mo  -1.047657515129660E+00   7.748439879466480E-01   1.725869471618940E+01
   Mo   1.632150514858000E+00  -6.604462933583590E-01   3.477364148547310E+00
    S  -1.481449542401500E+00  -3.461678211676780E-01   2.311665522462620E+01
    S  -8.100477557335261E-01   2.758578412360360E+00   9.387080054915581E+00
    S   4.918858399861900E-02   2.477028510758090E+00   2.309203502756820E+01
    S   8.074733754640480E-01  -2.615959317855780E-02   9.346268596162879E+00
    S  -1.082322712485790E+00   2.654219836197470E+00   1.570686392024540E+01
    S   1.602956590817730E+00   1.173841823536720E+00   1.855418346085170E+00
    S  -2.657522913302140E+00  -1.615192145767760E-01   1.569692343563740E+01
    S   1.698936521967960E-02  -1.591578485105000E+00   1.903257034414690E+00
    S  -1.476832495156870E+00  -3.113810882916180E-01   2.624825614618190E+01
    S  -8.016102013486710E-01   2.776223549260190E+00   1.249329575662390E+01
    S   5.565188916344530E-02   2.452270101131010E+00   2.625531338602840E+01
    S   8.137942702535350E-01  -4.847148903566890E-02   1.252088873693560E+01
    S  -1.078407097913490E+00   2.627371994188830E+00   1.884606916441700E+01
    S   1.604519474909870E+00   1.205338641019240E+00   5.034638988284060E+00
    S  -2.659424122882840E+00  -1.476022231035250E-01   1.884050430461620E+01
    S   2.107918270185920E-02  -1.634465330916470E+00   5.016990324489930E+00
