 &control

     calculation = 'scf',

     restart_mode='from_scratch',

     tprnfor=.true.

     prefix='MoS2',

     outdir='./tmp',

     max_seconds = 84500

     disk_io = 'none'

     pseudo_dir = '~/pseudo/',

 /

 &system

    ibrav = 0,

    nat =  24
    ntyp = 2

    ecutwfc = 45 , ecutrho = 360,

    occupations='smearing', smearing='mv', degauss=0.02

/

  &electrons

     diagonalization='david',

     mixing_mode  =  'local-TF',

     mixing_beta = 0.7

   /

   &ions

     ion_dynamics = 'bfgs'

  /

   &cell

     cell_dynamics = 'bfgs',

   /

 ATOMIC_SPECIES

 Mo  95.5     Mo.pw91-n-van.UPF

 S   32.065   S.pw91-van_ak.UPF

K_POINTS {automatic}
  3  3  2 0 0 0
  
CELL_PARAMETERS (angstrom)
   6.481129974874812E+00   0.000000000000000E+00   0.000000000000000E+00
  -3.247703964120577E+00   5.573999151681335E+00   0.000000000000000E+00
  -1.694067168273526E-01  -4.510135075639380E-01   1.168271563977403E+01
  
ATOMIC_POSITIONS (angstrom)
   Mo   8.773789222104179E-02  -3.782104576585210E-01   8.411253168631781E+00
   Mo  -1.634653013688550E+00   2.399400975619380E+00   8.743489541010790E+00
   Mo   3.308377788347320E+00  -3.303352201137530E-01   8.776748082008520E+00
   Mo   1.511621254847010E+00   2.396504017998000E+00   9.249472147750449E+00
   Mo  -1.571178219643170E-01  -2.755158770841160E-02   3.177128067514380E+00
   Mo  -1.785491317194480E+00   2.690066806832800E+00   2.725608716636540E+00
   Mo   3.030096445595280E+00  -8.635366902404380E-02   2.961405178591280E+00
   Mo   1.458579527613320E+00   2.781075358021890E+00   2.680320919146160E+00
    S   1.672103497987380E+00  -2.525364765069740E-02   9.902378778095120E+00
    S   1.567726101282580E-02   3.225397272830890E+00   1.013094006940510E+01
    S   5.035093993548130E+00   3.815778615292970E-01   9.832393662798779E+00
    S   3.054395961008010E+00   3.014240558568500E+00   1.000815345478550E+01
    S  -2.243782882503530E-01   1.638553089788660E+00   1.711041742502840E+00
    S  -1.890318600592990E+00   4.456935660518600E+00   1.756690765795200E+00
    S   2.786499468966100E+00   1.813868457304830E+00   1.632173483940540E+00
    S   1.164201574840620E+00   4.565375488335560E+00   1.754553657871670E+00
    S   9.981824198642320E-02   2.030671654062490E+00   4.042509343464980E+00
    S  -1.906484192831790E+00   4.497062334898240E+00   4.132500564329100E+00
    S   3.407351700914380E+00   1.658105884852700E+00   3.955238124469440E+00
    S   1.576852731190060E+00   4.772592218281790E+00   4.108646922846940E+00
    S   1.434035304799370E+00   1.025137420651750E+00   7.654145353249330E+00
    S  -1.331063306176410E-01   3.632546253041040E+00   7.754892904704530E+00
    S   4.886221325846500E+00   7.059162029059890E-01   7.481439689510310E+00
    S   3.474339498456100E+00   3.389854541296810E+00   7.614900076035600E+00
