 Mo S
1.0
   6.481129974866552E+00   0.000000000000000E+00   0.000000000000000E+00
  -3.247703964108878E+00   5.573999151655714E+00   0.000000000000000E+00
  -1.694067168157058E-01  -4.510135075866680E-01   1.168271563975923E+01
 Mo S
 8 16
Cartesian
   8.773789220377542E-02  -3.782104576777934E-01   8.411253168616808E+00
  -1.634653013669119E+00   2.399400975609970E+00   8.743489540992185E+00
   3.308377788326158E+00  -3.303352201147130E-01   8.776748081991188E+00
   1.511621254847822E+00   2.396504017993033E+00   9.249472147735121E+00
  -1.571178219553613E-01  -2.755158773151099E-02   3.177128067509667E+00
  -1.785491317219611E+00   2.690066806814199E+00   2.725608716623320E+00
   3.030096445569797E+00  -8.635366902907896E-02   2.961405178572470E+00
   1.458579527624620E+00   2.781075358035126E+00   2.680320919127845E+00
   1.672103497978453E+00  -2.525364765649094E-02   9.902378778074969E+00
   1.567726098686013E-02   3.225397272848833E+00   1.013094006938299E+01
   5.035093993553038E+00   3.815778615074893E-01   9.832393662797744E+00
   3.054395960998646E+00   3.014240558593157E+00   1.000815345476178E+01
  -2.243782882349805E-01   1.638553089765534E+00   1.711041742529106E+00
  -1.890318600591796E+00   4.456935660502531E+00   1.756690765807482E+00
   2.786499468941430E+00   1.813868457329854E+00   1.632173483947355E+00
   1.164201574861284E+00   4.565375488359015E+00   1.754553657873967E+00
   9.981824197698166E-02   2.030671654079867E+00   4.042509343451588E+00
  -1.906484192816924E+00   4.497062334882726E+00   4.132500564345295E+00
   3.407351700917794E+00   1.658105884826917E+00   3.955238124479982E+00
   1.576852731188903E+00   4.772592218301477E+00   4.108646922838378E+00
   1.434035304778551E+00   1.025137420629090E+00   7.654145353249167E+00
  -1.331063306438589E-01   3.632546253042693E+00   7.754892904703389E+00
   4.886221325840066E+00   7.059162029036493E-01   7.481439689507702E+00
   3.474339498479758E+00   3.389854541296251E+00   7.614900076059524E+00
