 &control

     calculation = 'scf',

     restart_mode='from_scratch',

     tprnfor=.true.

     prefix='MoS2',

     outdir='./tmp',

     max_seconds = 84500

     disk_io = 'none'

     nstep= 25

     pseudo_dir = '~/pseudo/',

 /

 &system

    ibrav = 0,

    nat =  27
    ntyp = 2

    ecutwfc = 45 , ecutrho = 360,

    occupations='smearing', smearing='mv', degauss=0.02

/

  &electrons

     diagonalization='david',

     mixing_mode  =  'local-TF',

     mixing_beta = 0.7

   /

   &ions

     ion_dynamics = 'bfgs'

  /

   &cell

     cell_dynamics = 'bfgs',

   /

 ATOMIC_SPECIES

 Mo  95.5     Mo.pw91-n-van.UPF

 S   32.065   S.pw91-van_ak.UPF

K_POINTS {automatic}
  3  2  2 0 0 0
  
CELL_PARAMETERS (angstrom)
   6.039358681131660E+00   0.000000000000000E+00   0.000000000000000E+00
  -1.240642915621620E+00   9.018194827184731E+00   0.000000000000000E+00
   3.603217423986880E-01  -2.858788082549190E+00   9.755498771074210E+00
  
ATOMIC_POSITIONS (angstrom)
   Mo   2.160819415931980E+00   4.325469947072010E+00   5.427753993450680E+00
   Mo   4.449587012731740E-01   2.344296979524200E+00   9.178325312472010E+00
   Mo  -2.277855743693990E-01   4.688870295418020E-01   6.167154377595740E+00
   Mo  -1.404766449145180E+00   8.266022198504650E+00   1.078706267980970E+00
   Mo   6.068680927399160E+00   1.019099935746350E+00   3.312312156443920E+00
   Mo   4.054336744234240E+00   7.521626191968450E+00   4.112005872696510E+00
   Mo   2.917940649103950E+00   2.136934781081740E+00  -1.644614937149110E-02
   Mo   3.210603911640360E+00   4.362467525286430E+00   2.759092862250390E+00
   Mo   1.966442382314430E+00   6.229568413013890E+00   7.642508620594320E+00
    S   1.364529080529740E+00  -4.796019895703080E-01   4.809865819643560E+00
    S   5.039152898040250E+00   5.328200290935020E+00   4.071338197928450E+00
    S   1.707699459662350E+00   4.190434186209420E+00   7.680565068109600E-01
    S   4.169501234626820E+00  -2.122548484039160E-01   2.526943649574070E+00
    S   2.093564060180600E+00   2.575218803642720E+00   3.841264682068880E+00
    S   2.064490352986610E-01   5.379097506374180E+00   6.154664900597010E+00
    S   3.522595942309440E+00   4.490587217054780E+00   7.106934324254160E+00
    S   4.663829342262590E+00   2.684071293013580E+00   1.794112717550150E+00
    S   4.729607864568360E+00   8.761143221851380E-01   8.395614115821891E+00
    S   6.954132805019640E-01   4.718633704535160E+00   9.122146655589839E+00
    S   4.054728302103300E+00  -1.103736226295620E+00   6.062681674794780E+00
    S  -1.718282839316760E+00   5.987436800610130E+00   1.034577948499630E+00
    S   1.419713378510960E+00   2.211982427887590E+00   6.954105711806030E+00
    S   1.940647061690290E+00   6.072491305369950E+00   3.677702543262050E+00
    S   5.037703289519340E+00  -2.349737626628830E+00   9.206991219091870E+00
    S   4.909806561741080E+00   2.128691263898810E+00   5.065335474586070E+00
    S   1.644060706971340E+00   6.453643774864930E-01   1.540095286607680E+00
    S   1.753815319716330E+00  -9.950836995246310E-01   8.174241679981870E+00
