 &control

     calculation = 'scf',

     restart_mode='from_scratch',

     tprnfor=.true.

     prefix='MoS2',

     outdir='./tmp',

     max_seconds = 84500

     disk_io = 'none'

     nstep= 12

     pseudo_dir = '~/pseudo/',

 /

 &system

    ibrav = 0,

    nat =  42
    ntyp = 2

    ecutwfc = 45 , ecutrho = 360,

    occupations='smearing', smearing='mv', degauss=0.02

/

  &electrons

     diagonalization='david',

     mixing_mode  =  'local-TF',

     mixing_beta = 0.7

   /

   &ions

     ion_dynamics = 'bfgs'

  /

   &cell

     cell_dynamics = 'bfgs',

   /

 ATOMIC_SPECIES

 Mo  95.5     Mo.pw91-n-van.UPF

 S   32.065   S.pw91-van_ak.UPF

K_POINTS {automatic}
  2  2  2 0 0 0
  
CELL_PARAMETERS (angstrom)
   9.588307618791180E+00   0.000000000000000E+00   0.000000000000000E+00
  -1.839679212514680E-01   1.000617531108260E+01   0.000000000000000E+00
   1.181684077416888E-02  -7.318293529374290E-01   9.919909499158519E+00
  
ATOMIC_POSITIONS (angstrom)
   Mo   8.593052101835390E+00   5.887744548823080E+00   3.998473474420640E+00
   Mo   5.733105096254130E+00   5.897265529253680E+00   1.119934232184330E+00
   Mo   7.762310846540470E+00   8.227969501652529E+00   1.651267090572670E+00
   Mo   5.653410816423100E+00   8.691294556750240E+00   3.593853436979500E+00
   Mo   3.479054516301120E+00   1.304697784069450E+00   3.321573793212370E+00
   Mo   1.320340547393470E+00   1.377250812151780E+00   1.406811387760070E+00
   Mo   3.456079962100580E+00   3.461586540307110E+00   1.397540816879770E+00
   Mo   1.462727594676700E+00   3.408574453733520E+00   3.435505411676100E+00
   Mo   5.820716618753490E+00   7.568013071065109E-01   5.634186209603580E+00
   Mo   8.570720266465040E+00   3.738632345955770E+00   5.946041385215530E+00
   Mo   5.812288234684500E+00   3.218155341499920E+00   8.839469788581740E+00
   Mo   3.649185795032270E+00   5.049016681109660E+00   8.996614395281100E+00
   Mo   9.901063573370330E-01   5.721167227105730E+00   6.059567429520070E+00
   Mo   3.471102685041540E+00   8.941044053753741E+00   5.462597732830630E+00
    S   8.271599623548671E+00   6.065595689163560E+00   1.402732646151700E+00
    S   6.062496015622090E+00   6.142909534887930E+00   3.645360074404520E+00
    S   5.964213317281300E+00   1.031878723358930E+00   3.310313966800140E+00
    S   9.128415087186770E+00   9.757399208656141E+00   5.881688235911990E-01
    S   5.933186821129800E+00   3.494514020956740E+00   1.250919280440480E+00
    S   8.534324112656471E+00   3.539306780728560E+00   3.571469134629600E+00
    S   6.059163675725690E+00   3.259679205287520E+00   6.240897672002110E+00
    S   3.465032209453630E+00   1.061351819109740E+00   8.032858694147520E-01
    S   1.039289321837650E+00   1.014053398648240E+00   3.633077670665960E+00
    S   1.296516658944180E+00   5.876461123417920E+00   3.704609702454640E+00
    S   3.354679625199010E+00   5.953921102882570E+00   1.396924758377430E+00
    S   1.391525617836700E+00   5.741926922732280E+00   8.569305987397669E+00
    S   3.263692475128980E+00   8.820463661013971E+00   3.137501294986430E+00
    S   8.201654398525269E+00   1.136121114816880E+00   6.043473977655850E+00
    S   8.158513954565040E+00   8.370138485052969E+00   3.935910330322210E+00
    S   5.954733509812600E+00   7.692620969788250E-01   8.286811096421619E+00
    S   5.923210054841010E+00   5.592205898884780E+00   8.699648238216801E+00
    S   8.252990321212421E+00   5.996715146726750E+00   6.353704749447020E+00
    S   5.639791378364230E+00   8.359539833547320E+00   6.033962458267190E+00
    S   5.557653632021600E+00   8.479683081450220E+00   1.091457411911320E+00
    S   3.587934232450800E+00   5.826874533345410E+00   6.618007129608610E+00
    S   3.891501067252420E+00   3.684649396355240E+00   3.833126031727690E+00
    S   1.447976471994590E+00   8.120616614076891E+00   6.341200710158190E+00
    S   8.223105039079130E+00   3.275883445466610E+00   8.341420177535809E+00
    S   3.456539460936980E+00   1.152680036944740E+00   5.793574372245280E+00
    S   1.298243535338470E+00   3.364156503900320E+00   5.969139774006490E+00
    S   3.413359110031230E+00   2.808790640229710E+00   8.787721915083219E+00
    S   9.485596693462920E-01   3.589668749441250E+00   1.031466720601870E+00
