 &control

     calculation = 'relax',

     restart_mode='from_scratch',

     tprnfor=.true.

     prefix='MoS2',

     outdir='./tmp',

     max_seconds = 84500

     disk_io = 'none'

     pseudo_dir = '~/pseudo/',

     nstep= 4

 /

 &system

    ibrav = 0,

    nat =  24
    ntyp = 2

    ecutwfc = 45 , ecutrho = 360,

    occupations='smearing', smearing='mv', degauss=0.02

/

  &electrons

     diagonalization='david',

     mixing_mode  =  'local-TF',

     mixing_beta = 0.7

   /

   &ions

     ion_dynamics = 'bfgs'

  /

   &cell

     cell_dynamics = 'bfgs',

   /

 ATOMIC_SPECIES

 Mo  95.5     Mo.pw91-n-van.UPF

 S   32.065   S.pw91-van_ak.UPF

K_POINTS {automatic}
  3  3  1 0 0 0
  
CELL_PARAMETERS (angstrom)
   6.455681688940350E+00   0.000000000000000E+00   0.000000000000000E+00
   3.211178383333670E+00   5.580219320773150E+00   0.000000000000000E+00
   1.182502055240320E+00   1.494549283755040E+00   1.930325055292320E+01
  
ATOMIC_POSITIONS (angstrom)
   Mo   5.381193038395040E+00   4.744650810240340E+00   4.140608289773660E+00
   Mo   7.001958516603630E+00   1.931802440482230E+00   4.088783788664690E+00
   Mo   3.802139920305130E+00   2.076568338651790E+00   4.193002510294820E+00
   Mo   8.647967705979889E+00   4.834133255747800E+00   4.215810524231500E+00
   Mo   5.450888048050920E+00   2.207682263608660E+00   1.527942274390910E+01
   Mo   3.778732252353350E+00   5.040341682344590E+00   1.525401659087210E+01
   Mo   7.087261707484510E+00   5.120244090189230E+00   1.513306485693410E+01
   Mo   2.215043876747000E+00   2.296565983531920E+00   1.514106128312360E+01
    S   7.030458943372410E+00   5.772786583736160E+00   2.644991545519620E+00
    S   2.191058812183940E+00   2.998761951095610E+00   2.607331832962060E+00
    S   5.393980528899290E+00   2.910181632453360E+00   2.525862736880310E+00
    S   3.784938925014060E+00   5.645094752921080E+00   2.524050433738430E+00
    S   7.134490322033880E+00   1.337299039372690E+00   1.680636954631880E+01
    S   5.510470447122370E+00   4.166820882355700E+00   1.674204076072690E+01
    S   8.597992918894279E+00   4.118503565297740E+00   1.678612455826930E+01
    S   3.762222426415180E+00   1.342811279429020E+00   1.679035634728890E+01
    S   7.019178598995620E+00   1.292592534610800E+00   1.364451849687550E+01
    S   5.391286573871490E+00   4.072745831826330E+00   1.369972803606920E+01
    S   8.684683922590279E+00   4.162689416434220E+00   1.356325450460580E+01
    S   3.870105424987920E+00   1.401175617788130E+00   1.357600128313190E+01
    S   6.956026594768100E+00   5.753459229539340E+00   5.719005142317800E+00
    S   2.095313404783150E+00   2.915520589475720E+00   5.714929258580300E+00
    S   5.478129844068250E+00   2.907240388514940E+00   5.743782771531640E+00
    S   3.831853332547220E+00   5.716012655083050E+00   5.769238382797320E+00
