 &control

     calculation = 'scf',

     restart_mode='from_scratch',

     tprnfor=.true.

     prefix='MoS2',

     outdir='./tmp',

     max_seconds = 84500

     disk_io = 'none'

     pseudo_dir = '~/pseudo/',

 /

 &system

    ibrav = 0,

    nat =  36
    ntyp = 2

    ecutwfc = 45 , ecutrho = 360,

    occupations='smearing', smearing='mv', degauss=0.02

/

  &electrons

     diagonalization='david',

     mixing_mode  =  'local-TF',

     mixing_beta = 0.7

   /

   &ions

     ion_dynamics = 'bfgs'

  /

   &cell

     cell_dynamics = 'bfgs',

   /

 ATOMIC_SPECIES

 Mo  95.5     Mo.pw91-n-van.UPF

 S   32.065   S.pw91-van_ak.UPF

K_POINTS {automatic}
  3  3  1 0 0 0
  
CELL_PARAMETERS (angstrom)
   6.700352400000000E+00   0.000000000000000E+00   0.000000000000000E+00
  -3.350176200000000E+00   5.802675900000001E+00   0.000000000000000E+00
   0.000000000000000E+00   0.000000000000000E+00   2.238411000000000E+01
  
ATOMIC_POSITIONS (angstrom)
   Mo   1.674564767011750E+00   8.548424693294310E-01   7.621886283358030E+00
   Mo  -1.300831388316880E-01   3.771652476130310E+00   7.339288639077390E+00
   Mo   4.926419852138790E+00   9.107738477360420E-01   7.291885343804520E+00
   Mo   3.475979849216310E+00   3.911924771740650E+00   7.605648394161040E+00
   Mo   2.903972444095030E-03   1.736410756456750E+00   1.494709146498880E+01
   Mo  -1.674860533164630E+00   4.835363180927130E+00   1.471775603725870E+01
   Mo   3.261252648518280E+00   2.023799377907770E+00   1.507289947284200E+01
   Mo   1.778307307977740E+00   4.827355983716740E+00   1.508886417460500E+01
   Mo  -1.968207253027390E-01   3.510755900946910E-02   2.238450920533990E+01
   Mo  -1.656726032747120E+00   2.931923744133300E+00   2.257591098480460E+01
   Mo   3.418155436910780E+00   1.566079679838980E-02   2.219167885245310E+01
   Mo   1.577712680659950E+00   2.761658095434390E+00   2.248403529127580E+01
    S  -1.779316734674390E-01   2.015863240314730E+00   1.597618729712230E+00
    S  -1.774452636965650E+00   4.867931388339250E+00   1.809088415493620E+00
    S   3.475798458844380E+00   1.884716870687250E+00   1.786099570893450E+00
    S   1.639908941530890E+00   4.946651788583920E+00   1.476012870216830E+00
    S   3.194389844820980E-02  -1.249580744816940E-01   5.965741118273070E+00
    S  -1.612736549849280E+00   2.725627821471050E+00   5.885260409153010E+00
    S   3.522065988928790E+00   3.913579310801430E-02   5.907342632734560E+00
    S   1.636297377154770E+00   3.094162050740390E+00   5.776633606045800E+00
    S  -1.791029015994800E-02   2.096224770491620E-02   9.298014556591900E+00
    S  -1.532278464247480E+00   3.028647532118130E+00   9.158213765446179E+00
    S   3.282322517585610E+00   1.048091355797280E-01   9.256164111748859E+00
    S   1.680038808121960E+00   2.756123660647740E+00   9.237358873012790E+00
    S   1.796966013339420E+00   9.354601923051670E-01   1.311886272277180E+01
    S   1.932293784257130E-01   3.832459965787070E+00   1.331123105659590E+01
    S   5.015250877518700E+00   9.208171304796340E-01   1.346855764662120E+01
    S   3.331122684817920E+00   4.000398751785210E+00   1.312516232139350E+01
    S   1.752976330807460E+00   1.080207219647990E+00   1.670669331357090E+01
    S  -1.010220411593800E-01   4.035540964752290E+00   1.651798894267510E+01
    S   4.984311420941810E+00   7.742528852274920E-01   1.659487551496250E+01
    S   3.311915974103330E+00   3.699461998867670E+00   1.646139071917530E+01
    S  -5.754118554382590E-02   1.850889620772180E+00   2.056316712660160E+01
    S  -1.590149779416690E+00   4.999862361312240E+00   2.065953151637310E+01
    S   3.543984779973310E+00   1.908844956243590E+00   2.069328397125150E+01
    S   1.664448421722780E+00   4.800298448799360E+00   2.053905358726760E+01
