 &control

     calculation = 'relax',

     restart_mode='from_scratch',

     tprnfor=.true.

     prefix='MoS2',

     outdir='./tmp',

     max_seconds = 84500

     disk_io = 'none'

     pseudo_dir = '~/pseudo/',

     nstep= 4

 /

 &system

    ibrav = 0,

    nat =  36
    ntyp = 2

    ecutwfc = 45 , ecutrho = 360,

    occupations='smearing', smearing='mv', degauss=0.02

/

  &electrons

     diagonalization='david',

     mixing_mode  =  'local-TF',

     mixing_beta = 0.7

   /

   &ions

     ion_dynamics = 'bfgs'

  /

   &cell

     cell_dynamics = 'bfgs',

   /

 ATOMIC_SPECIES

 Mo  95.5     Mo.pw91-n-van.UPF

 S   32.065   S.pw91-van_ak.UPF

K_POINTS {automatic}
  3  3  1 0 0 0
  
CELL_PARAMETERS (angstrom)
   6.456046688610450E+00   0.000000000000000E+00   0.000000000000000E+00
   3.227287358992080E+00   5.591176656262660E+00   0.000000000000000E+00
   1.870821059002020E+00  -6.792774314721510E-01   2.196797224151390E+01
  
ATOMIC_POSITIONS (angstrom)
   Mo   8.821880553436360E+00   5.175483424249880E+00   7.807892990290850E+00
   Mo   7.208239244481190E+00   2.379896911999470E+00   7.807855381319500E+00
   Mo   3.980211154470790E+00   2.379896592950720E+00   7.807880429586290E+00
   Mo   5.593857195433940E+00   5.175485038731850E+00   7.807911168112580E+00
   Mo   8.649041480160079E+00   5.053367476024870E+00   1.462907821140530E+01
   Mo   7.035397940329610E+00   2.257790049203220E+00   1.462906567117680E+01
   Mo   3.807363549406010E+00   2.257795846546090E+00   1.462910119451660E+01
   Mo   5.421009103548220E+00   5.053374845187440E+00   1.462907284962060E+01
   Mo   2.385664978755070E+00  -4.249679893311370E-01   2.148880961897380E+01
   Mo   3.999320927712170E+00   2.370632418426380E+00   2.148878685755020E+01
   Mo   7.227333521009180E+00   2.370624465074110E+00   2.148878096258220E+01
   Mo   5.613703036432510E+00  -4.249618427183960E-01   2.148880847507420E+01
    S   8.585246311983701E+00   4.914291474947250E+00   1.092907957671330E+00
    S   6.971600461738650E+00   2.118726587165210E+00   1.092881073314230E+00
    S   3.743580403349120E+00   2.118726887879690E+00   1.092891314443000E+00
    S   5.357227142156340E+00   4.914291901633100E+00   1.092892113850510E+00
    S   3.980893966837530E+00   4.244210691428850E+00   6.235891101916890E+00
    S   2.367252677686510E+00   1.448590977474210E+00   6.235874617433010E+00
    S   5.595255783330300E+00   1.448601361519740E+00   6.235871227068270E+00
    S   7.208901884567730E+00   4.244224743994640E+00   6.235880712735520E+00
    S   3.977816736335390E+00   4.242305610661700E+00   9.391618723257389E+00
    S   2.364169376975000E+00   1.446746642411210E+00   9.391603760139599E+00
    S   5.592214820095910E+00   1.446738347679210E+00   9.391590525052621E+00
    S   7.205853545335980E+00   4.242292510973110E+00   9.391607728049159E+00
    S   5.422340588657890E+00   1.326582008708810E+00   1.304821207544990E+01
    S   7.036001569469970E+00   4.122177117405480E+00   1.304818904632620E+01
    S   3.807978099950760E+00   4.122158383644810E+00   1.304819327512190E+01
    S   2.194349303007230E+00   1.326583828996990E+00   1.304819657611380E+01
    S   5.422351903893440E+00   1.326452965027480E+00   1.620991559673530E+01
    S   7.035980491103870E+00   4.122038670434020E+00   1.620991351039430E+01
    S   1.026401035095330E+01   4.122056041907990E+00   1.620993878101090E+01
    S   8.650348120090189E+00   1.326449410600570E+00   1.620992451875040E+01
    S   1.045306290285810E+01   4.233026927255400E+00   1.990514221162240E+01
    S   8.839423695644980E+00   1.437416844399460E+00   1.990514949123440E+01
    S   5.611390943884070E+00   1.437416804467850E+00   1.990513903144240E+01
    S   7.225041030229470E+00   4.233031260602380E+00   1.990515655035910E+01
