 &control

     calculation = 'scf',

     restart_mode='from_scratch',

     tprnfor=.true.

     prefix='MoS2',

     outdir='./tmp',

     max_seconds = 84500

     disk_io = 'none'

     pseudo_dir = '~/pseudo/',

 /

 &system

    ibrav = 0,

    nat =  24
    ntyp = 2

    ecutwfc = 45 , ecutrho = 360,

    occupations='smearing', smearing='mv', degauss=0.02

/

  &electrons

     diagonalization='david',

     mixing_mode  =  'local-TF',

     mixing_beta = 0.7

   /

   &ions

     ion_dynamics = 'bfgs'

  /

   &cell

     cell_dynamics = 'bfgs',

   /

 ATOMIC_SPECIES

 Mo  95.5     Mo.pw91-n-van.UPF

 S   32.065   S.pw91-van_ak.UPF

K_POINTS {automatic}
  3  3  2 0 0 0
  
CELL_PARAMETERS (angstrom)
   6.911778450750034E+00   0.000000000000000E+00   0.000000000000000E+00
  -3.076178074210926E+00   5.765900161232053E+00   0.000000000000000E+00
  -1.462819455074958E+00  -1.234008098325878E+00   1.110298133942717E+01
  
ATOMIC_POSITIONS (angstrom)
   Mo   1.686744144204900E-01   1.610487128123450E+00   3.584300014644420E+00
   Mo  -1.073244842342160E+00   4.462599759557470E+00   2.307305319967350E+00
   Mo   3.889924588076780E+00   1.485712848419530E+00   2.423315920397040E+00
   Mo   2.285417509290990E+00   4.106389143716380E+00   3.227184402135370E+00
   Mo  -2.945675223942120E-01  -3.659517886359500E-01   8.015887397085431E+00
   Mo  -1.499400295189980E+00   2.674488865595610E+00   7.841314546465970E+00
   Mo   3.237696555490700E+00   1.687241853235470E-02   8.482028512162559E+00
   Mo   1.752597323040050E+00   2.752217635993420E+00   8.484544875499170E+00
    S   4.739730233168230E-01  -8.548866941001880E-01   3.662237599097640E+00
    S   4.203361197032540E-01   3.849491213793000E+00   4.091994118472220E+00
    S   5.213751523018860E+00   5.641334265376530E-01   3.892124196487400E+00
    S   2.807113998432860E+00   2.379596006538540E+00   3.953731701961010E+00
    S  -1.818872141246660E+00   7.179468730542400E-01   8.882769665221639E+00
    S  -3.623258581226990E+00   3.784722867798720E+00   9.104867266427201E+00
    S   1.596480867098440E+00   8.490779264038421E-01   9.504702858406320E+00
    S  -1.974324899402230E-01   3.656942313168570E+00   9.367625766768100E+00
    S   1.664484762110160E+00   8.277325864744490E-01   2.233458706684540E+00
    S   8.881887863466520E-01   5.011456964619820E+00   1.614799909791700E+00
    S   6.140306198900860E+00   2.298609466007460E+00   2.016343685058310E+00
    S   3.642853805924880E+00   3.329430478815410E+00   1.666678679169070E+00
    S   2.188459130674750E-01   1.705437831781440E+00   7.135997245209750E+00
    S  -1.605669669975670E+00   4.584811144591550E+00   7.106639693831090E+00
    S   3.414057466525690E+00   1.864656604754500E+00   7.497259453238360E+00
    S   1.795139700571400E+00   4.455481973663000E+00   7.184708908295230E+00
