 &control

     calculation = 'scf',

     restart_mode='from_scratch',

     tprnfor=.true.

     prefix='MoS2',

     outdir='./tmp',

     max_seconds = 84500

     disk_io = 'none'

     pseudo_dir = '~/pseudo/',

 /

 &system

    ibrav = 0,

    nat =  24
    ntyp = 2

    ecutwfc = 45 , ecutrho = 360,

    occupations='smearing', smearing='mv', degauss=0.02

/

  &electrons

     diagonalization='david',

     mixing_mode  =  'local-TF',

     mixing_beta = 0.7

   /

   &ions

     ion_dynamics = 'bfgs'

  /

   &cell

     cell_dynamics = 'bfgs',

   /

 ATOMIC_SPECIES

 Mo  95.5     Mo.pw91-n-van.UPF

 S   32.065   S.pw91-van_ak.UPF

K_POINTS {automatic}
  3  3  1 0 0 0
  
CELL_PARAMETERS (angstrom)
   6.221114250000000E+00   0.000000000000000E+00   0.000000000000000E+00
  -3.110558100000000E+00   5.387643300000001E+00   0.000000000000000E+00
   0.000000000000000E+00   0.000000000000000E+00   2.425702890000000E+01
  
ATOMIC_POSITIONS (angstrom)
   Mo   1.573139869039120E+00   1.092537956115010E+00   3.584191676587130E+00
   Mo  -1.311969589213970E-01   3.659109467451610E+00   3.491667879940610E+00
   Mo   4.722022229863110E+00   1.028597738445070E+00   3.486153565157600E+00
   Mo   2.999642760635570E+00   3.482217630809610E+00   3.501473810899260E+00
   Mo  -1.253099255815230E-01   1.951752736218760E+00   2.062877797406160E+01
   Mo  -1.745028869542140E+00   4.428112412592610E+00   2.064448456657360E+01
   Mo   3.251239988799520E+00   1.781798031310430E+00   2.077171822528400E+01
   Mo   1.357476443426480E+00   4.460945093174450E+00   2.063720638501170E+01
    S   8.689837314319440E-02   1.847250203085950E+00   5.325187259999580E+00
    S  -1.511059801187930E+00   4.344029779019470E+00   5.022826655419530E+00
    S   3.206153518766180E+00   1.768132702970060E+00   5.325999959147810E+00
    S   1.483929054985390E+00   4.409584331130380E+00   4.983741302616080E+00
    S   1.737791581388870E+00   9.655061736555590E-01   2.220212041870780E+01
    S   1.358064835747310E-01   3.444942213579090E+00   2.215703067959440E+01
    S   4.655382319785170E+00   8.899016248572970E-01   2.235559534549600E+01
    S   3.109121633732960E+00   3.597669206594930E+00   2.235593816106590E+01
    S   5.272438399806430E-02   1.981148632753700E+00   2.047181806643140E+00
    S  -1.616416631916430E+00   4.381589918295320E+00   1.944237823193480E+00
    S   3.270501831871600E+00   1.676604285113070E+00   2.114779320033170E+00
    S   1.523420422809580E+00   4.469508219118730E+00   1.904587113961660E+00
    S   1.467008073398430E+00   8.630284989970910E-01   1.928053410424900E+01
    S  -1.752239955336250E-01   3.515036139427190E+00   1.904610558010690E+01
    S   4.650836589538400E+00   8.948076792083790E-01   1.930390843915760E+01
    S   2.936758280011200E+00   3.652142913785810E+00   1.902608904360090E+01
