 &control

     calculation = 'relax',

     restart_mode='from_scratch',

     tprnfor=.true.

     prefix='MoS2',

     outdir='./tmp',

     max_seconds = 84500

     disk_io = 'none'

     pseudo_dir = '~/pseudo/',

     nstep= 4

 /

 &system

    ibrav = 0,

    nat =  15
    ntyp = 2

    ecutwfc = 45 , ecutrho = 360,

    occupations='smearing', smearing='mv', degauss=0.02

/

  &electrons

     diagonalization='david',

     mixing_mode  =  'local-TF',

     mixing_beta = 0.7

   /

   &ions

     ion_dynamics = 'bfgs'

  /

   &cell

     cell_dynamics = 'bfgs',

   /

 ATOMIC_SPECIES

 Mo  95.5     Mo.pw91-n-van.UPF

 S   32.065   S.pw91-van_ak.UPF

K_POINTS {automatic}
  3  3  2 0 0 0
  
CELL_PARAMETERS (angstrom)
   6.249599434835210E+00   0.000000000000000E+00   0.000000000000000E+00
  -1.819810020077810E+00   6.588260375069010E+00   0.000000000000000E+00
  -1.457378719083510E+00  -1.515210962446290E+00   9.193845556066909E+00
  
ATOMIC_POSITIONS (angstrom)
   Mo   1.306852188086430E+00   1.991252936889600E+00   3.109046376670230E-01
   Mo   1.170013746920170E+00   2.771202483643480E+00   5.854679004047350E+00
   Mo  -1.690091188195650E+00   2.554459593968800E+00   8.922712438260779E+00
   Mo   1.027351454256520E-01   5.660468853198030E-01   2.164348045284360E+00
   Mo  -1.521405100732010E+00   4.631287722054250E+00   1.740705065170460E+00
    S   3.113901557166800E+00   3.013680871672290E+00   7.017457931298600E+00
    S  -2.405159594022420E-01   6.238898286686600E+00   8.018175940604710E-01
    S  -5.820161655191390E-02   4.040099477161090E+00   4.194775103218780E+00
    S  -2.248538848929050E-01   1.415470678887220E+00   7.284444568449190E+00
    S  -5.550006724729230E-01   2.590921805419680E+00   1.384904650667280E+00
    S   1.469640509411570E+00   1.048482703139970E+00   4.136471085456630E+00
    S   3.865193663911320E+00   1.459489444326360E+00   6.434782147420910E-01
    S   2.274089996309600E-01   4.106430583210030E+00   7.766940794043290E+00
    S   3.196117871759020E+00   5.640493952496020E+00   3.375001731069170E+00
    S   3.364230276716000E+00   3.821187448961470E+00   1.549231647839980E-02
