 &control

     calculation = 'scf',

     restart_mode='from_scratch',

     tprnfor=.true.

     prefix='MoS2',

     outdir='./tmp',

     max_seconds = 84500

     disk_io = 'none'

     pseudo_dir = '~/pseudo/',

 /

 &system

    ibrav = 0,

    nat =  24
    ntyp = 2

    ecutwfc = 45 , ecutrho = 360,

    occupations='smearing', smearing='mv', degauss=0.02

/

  &electrons

     diagonalization='david',

     mixing_mode  =  'local-TF',

     mixing_beta = 0.7

   /

   &ions

     ion_dynamics = 'bfgs'

  /

   &cell

     cell_dynamics = 'bfgs',

   /

 ATOMIC_SPECIES

 Mo  95.5     Mo.pw91-n-van.UPF

 S   32.065   S.pw91-van_ak.UPF

K_POINTS {automatic}
  3  3  2 0 0 0
  
CELL_PARAMETERS (angstrom)
   6.489707432344514E+00   0.000000000000000E+00   0.000000000000000E+00
  -3.208844064716487E+00   5.589541215964868E+00   0.000000000000000E+00
  -1.876852649161822E-02  -2.802293606853139E-01   1.148696681011773E+01
  
ATOMIC_POSITIONS (angstrom)
   Mo   2.312405860098270E-01   1.789522438609160E+00   3.051396019630440E+00
   Mo  -1.521725148692420E+00   4.557891995827470E+00   2.545093985590320E+00
   Mo   3.427052382491240E+00   1.795190394159280E+00   2.696723235106160E+00
   Mo   1.729579210349840E+00   4.593524369243740E+00   3.530499325653410E+00
   Mo   1.459087534170930E+00   7.477842816387740E-01   8.753709487021441E+00
   Mo  -1.526456294560680E-01   3.541752801960170E+00   8.590415224156940E+00
   Mo   4.728920275431350E+00   7.188335334155820E-01   8.391690941139331E+00
   Mo   3.164440701171250E+00   3.524847493678540E+00   8.371969892568231E+00
    S   1.822967031537860E+00   4.039817167157080E-01   3.916049715963930E+00
    S   1.549947756893680E-01   3.496900780536810E+00   4.228537623672130E+00
    S   5.100356862016870E+00   7.660612928144220E-01   4.318501690412510E+00
    S   3.089468470397510E+00   3.258082387409030E+00   4.121535133994200E+00
    S  -2.352518498452970E-01   1.455856879363610E+00   9.741809352345390E+00
    S  -1.786377357707030E+00   4.300362124238150E+00   9.761038193162280E+00
    S   2.914443598832570E+00   1.669473222643540E+00   9.684817844028339E+00
    S   1.296557781565310E+00   4.452861491733660E+00   9.612489304862370E+00
    S   1.863207115424840E+00   1.297688239391220E+00   1.644028539199490E+00
    S   7.666602678029670E-03   3.687792586739370E+00   1.797633351637740E+00
    S   5.193287323415740E+00   1.063818032560030E+00   1.915979205553360E+00
    S   3.298280230610560E+00   3.897714265455820E+00   1.749761093210900E+00
    S  -1.545561903188850E-01   1.877621754852660E+00   7.402806097569720E+00
    S  -1.629392498479710E+00   4.647088164419740E+00   7.416493652304310E+00
    S   3.289049909995020E+00   1.660412705400100E+00   7.330439758196500E+00
    S   1.836915829404800E+00   4.474579423139840E+00   7.286552184041010E+00
