 &control

     calculation = 'scf',

     restart_mode='from_scratch',

     tprnfor=.true.

     prefix='MoS2',

     outdir='./tmp',

     max_seconds = 84500

     disk_io = 'none'

     pseudo_dir = '~/pseudo/',

 /

 &system

    ibrav = 0,

    nat =  24
    ntyp = 2

    ecutwfc = 45 , ecutrho = 360,

    occupations='smearing', smearing='mv', degauss=0.02

/

  &electrons

     diagonalization='david',

     mixing_mode  =  'local-TF',

     mixing_beta = 0.7

   /

   &ions

     ion_dynamics = 'bfgs'

  /

   &cell

     cell_dynamics = 'bfgs',

   /

 ATOMIC_SPECIES

 Mo  95.5     Mo.pw91-n-van.UPF

 S   32.065   S.pw91-van_ak.UPF

K_POINTS {automatic}
  3  5  1 0 0 0
  
CELL_PARAMETERS (angstrom)
   6.915232110755255E+00   0.000000000000000E+00   0.000000000000000E+00
  -1.733451780942212E+00   2.945732773769013E+00   0.000000000000000E+00
  -3.257013442491169E+00   8.404129912323555E-01   2.358311089435967E+01
  
ATOMIC_POSITIONS (angstrom)
   Mo   1.711918313510110E-01   1.543288303327270E+00   8.766742364022480E+00
   Mo  -3.389216489734500E+00   1.711290463417300E+00   2.102465014662010E+01
   Mo   3.653316359330090E+00   1.386783416903700E+00   8.256665801721240E+00
   Mo   4.069260185252090E-02   1.780912098583560E+00   2.106173242270050E+01
   Mo  -5.948304531888480E-01  -9.978352027169000E-01   3.218373997143020E+00
   Mo  -2.852232941455640E+00  -6.527287341359110E-01   1.479102260482560E+01
   Mo   2.817348840164470E+00  -1.039578032341880E+00   2.907445711813670E+00
   Mo   6.577972244855180E-01  -6.692229419900910E-01   1.440828305630540E+01
    S   2.140125248438950E+00   2.570845383745550E+00   9.382349928574570E+00
    S  -1.551272068658310E+00   2.806983837639290E+00   2.206256123357740E+01
    S   5.583190377734900E+00   2.681877742807710E+00   9.629978894583839E+00
    S   1.737174356622030E+00   2.844033250992690E+00   2.208928279512530E+01
    S  -6.298895067893410E-01   9.198621734730080E-01   2.053941100076820E+00
    S  -2.899682953453350E+00   1.363935081388090E+00   1.365218499987610E+01
    S   2.832994063682800E+00   9.412663734599750E-01   2.062867878900540E+00
    S   6.741169722243640E-01   1.399439407346330E+00   1.357166181611010E+01
    S  -5.988924321000070E-01   2.914569047474740E+00   3.998451180266480E+00
    S  -2.835061409160240E+00   3.389062406182510E+00   1.549250088240280E+01
    S   2.918145662738450E+00   2.893937536494810E+00   4.095417485961940E+00
    S   5.357767461069710E-01   3.305658611926640E+00   1.566535836085380E+01
    S   2.086813186405190E+00   4.539540594996520E-01   7.283634573501240E+00
    S  -1.491890229282310E+00   7.621720339682440E-01   2.006631996490400E+01
    S   5.603848423892720E+00   6.291706781456540E-01   7.405704212449670E+00
    S   1.889325617657600E+00   1.009883683229760E+00   1.994772679228290E+01
