 &control

     calculation = 'scf',

     restart_mode='from_scratch',

     tprnfor=.true.

     prefix='MoS2',

     outdir='./tmp',

     max_seconds = 84500

     disk_io = 'none'

     pseudo_dir = '~/pseudo/',

 /

 &system

    ibrav = 0,

    nat =  24
    ntyp = 2

    ecutwfc = 45 , ecutrho = 360,

    occupations='smearing', smearing='mv', degauss=0.02

/

  &electrons

     diagonalization='david',

     mixing_mode  =  'local-TF',

     mixing_beta = 0.7

   /

   &ions

     ion_dynamics = 'bfgs'

  /

   &cell

     cell_dynamics = 'bfgs',

   /

 ATOMIC_SPECIES

 Mo  95.5     Mo.pw91-n-van.UPF

 S   32.065   S.pw91-van_ak.UPF

K_POINTS {automatic}
  3  6  1 0 0 0
  
CELL_PARAMETERS (angstrom)
   6.385836000000000E+00   0.000000000000000E+00   0.000000000000000E+00
  -1.596459000000000E+00   2.765148000000000E+00   0.000000000000000E+00
   0.000000000000000E+00   0.000000000000000E+00   2.796553600000000E+01
  
ATOMIC_POSITIONS (angstrom)
   Mo   4.500224877849060E-02   1.630863734298950E-02   1.029288839495560E+01
   Mo   1.139531110803410E-01  -1.569200482538190E-01   2.451873967395110E+01
   Mo   3.114743669901050E+00   9.106230479623589E-02   1.064706484573240E+01
   Mo   3.042503148235600E+00   7.435127836813520E-02   2.457868911828150E+01
   Mo   6.489767769170690E-04   5.652251139125460E-04   3.695690148365710E+00
   Mo   1.936142537995970E-01   4.298269286699250E-02   1.745265285293710E+01
   Mo   3.163063848558730E+00   1.160787424913050E-01   3.335584363756880E+00
   Mo   3.211447005355910E+00   5.394355033611240E-02   1.728676553128050E+01
    S   1.607100856386330E+00   9.624079876405190E-01   1.185774469656700E+01
    S   1.498039498248170E+00   8.315250243278050E-01   2.618496615675780E+01
    S   4.659338030963400E+00   9.018788847660970E-01   1.190262002138690E+01
    S   4.786909393901620E+00   7.707953073482490E-01   2.616725390657570E+01
    S  -9.948520220488640E-03   1.807091594131480E+00   1.733077284043280E+00
    S   1.138848826227640E-01   1.763105315750120E+00   1.576881608018810E+01
    S   3.164441878989040E+00   1.933832405338810E+00   2.105612960579500E+00
    S   3.019797207055260E+00   1.789363676355730E+00   1.582796550022410E+01
    S   3.105128067219890E-02   1.899916381034550E+00   5.251216510738920E+00
    S   7.856615930502250E-02   1.971426923716570E+00   1.917673403172790E+01
    S   3.130255103474970E+00   2.013122279796870E+00   5.147205404407670E+00
    S   3.263341585457250E+00   1.677951490599660E+00   1.913215551638420E+01
    S   1.515110844036150E+00   8.036840349505980E-01   8.781413689393570E+00
    S   1.583094432479890E+00   1.062125238515770E+00   2.276185133882730E+01
    S   4.944436409123040E+00   9.269872436452860E-01   9.047091386622620E+00
    S   4.819142081803470E+00   9.083836508025420E-01   2.270632503354420E+01
