 &control

     calculation = 'scf',

     restart_mode='from_scratch',

     tprnfor=.true.

     prefix='MoS2',

     outdir='./tmp',

     max_seconds = 84500

     disk_io = 'none'

     nstep= 12

     pseudo_dir = '~/pseudo/',

 /

 &system

    ibrav = 0,

    nat =  33
    ntyp = 2

    ecutwfc = 45 , ecutrho = 360,

    occupations='smearing', smearing='mv', degauss=0.02

/

  &electrons

     diagonalization='david',

     mixing_mode  =  'local-TF',

     mixing_beta = 0.7

   /

   &ions

     ion_dynamics = 'bfgs'

  /

   &cell

     cell_dynamics = 'bfgs',

   /

 ATOMIC_SPECIES

 Mo  95.5     Mo.pw91-n-van.UPF

 S   32.065   S.pw91-van_ak.UPF

K_POINTS {automatic}
  2  2  2 0 0 0
  
CELL_PARAMETERS (angstrom)
   8.508124596566381E+00   0.000000000000000E+00   0.000000000000000E+00
   2.212849096530440E+00   9.519814566744470E+00   0.000000000000000E+00
   3.747223361303820E+00   3.935187195021060E+00   9.198197778103189E+00
  
ATOMIC_POSITIONS (angstrom)
   Mo   8.267580138618561E+00   9.191150590896500E+00   3.462436570494940E+00
   Mo   1.245439524005880E+01   1.020973930124610E+01   7.818877004956920E+00
   Mo   9.950379033995629E+00   2.076861014122270E+00   3.443288078242390E+00
   Mo   6.844214306077820E+00   3.138659294426620E+00   4.045592407412390E+00
   Mo   9.907153930298030E+00   8.025819268995059E+00   1.549979322396530E+00
   Mo   3.574365351908380E+00   3.998678289646720E+00   3.058964797281620E+00
   Mo   6.615838223118790E+00   1.026634096913590E+01   7.122144229832780E+00
   Mo   9.579692228327520E+00   1.027531382075760E+01   6.975410480022830E+00
   Mo   2.148560605502300E+00   5.277293846089390E+00   5.292739736682930E-01
   Mo   7.064232956558080E+00   8.114046982646590E+00   1.072025407946300E+00
   Mo   9.194104175715950E+00   4.812124896908940E+00   3.350195363636880E+00
    S   8.182391880631551E+00   9.757443332444760E+00   8.886923465903910E+00
    S   7.985164964613070E+00   8.563197163233781E+00   5.935492025869470E+00
    S   4.749233280709410E+00   1.039152422661120E+01   5.440721230257500E+00
    S   1.104461751353660E+01   8.417020372617460E+00   6.902684640804240E+00
    S   5.448900911262530E+00   8.134976370156579E+00   7.596751731567560E+00
    S   7.670356307575970E+00   5.030699775778540E+00   5.185028499886470E+00
    S   2.805307628242110E+00   2.990698886160820E+00   1.123640873472350E+00
    S   5.781744346031230E+00   4.711795311272440E+00   2.486819892740170E+00
    S   9.745059104377731E+00   7.255456069339650E+00   3.888006208636640E+00
    S   3.389583858761030E+00   6.411100728458080E+00   2.383990374238500E+00
    S   8.408126968725890E+00   6.059586274272090E+00   1.119661681396630E+00
    S   6.344056530635700E+00   7.809302062472900E+00   3.288622230276050E+00
    S   1.073791759719530E+01   3.909434835913190E+00   4.966782413519400E+00
    S   3.410301767138900E+00   9.577471190753080E+00   1.902104369175390E+00
    S   8.183643521263679E+00   3.020880112176450E+00   2.060010155181840E+00
    S   4.817946191040330E+00   1.885119029863400E+00   3.608254367664000E+00
    S   8.037432709741759E+00   1.219144859261260E+01   6.343764045045230E+00
    S   5.547659316990350E+00   1.217215221207160E+01   8.272706520122579E+00
    S   1.012979908163710E+01   1.056117615567140E+01   4.536854307687050E+00
    S   1.090031343709230E+01   1.209718014984300E+01   7.781808844501990E+00
    S   8.492196601264650E+00   9.908515086208849E+00   1.199806518977810E+00
    S   4.928838277081700E+00   9.121108749870700E+00   5.525403132720520E-01
