 &control

     calculation = 'scf',

     restart_mode='from_scratch',

     tprnfor=.true.

     prefix='MoS2',

     outdir='./tmp',

     max_seconds = 84500

     disk_io = 'none'

     pseudo_dir = '~/pseudo/',

 /

 &system

    ibrav = 0,

    nat =  24
    ntyp = 2

    ecutwfc = 45 , ecutrho = 360,

    occupations='smearing', smearing='mv', degauss=0.02

/

  &electrons

     diagonalization='david',

     mixing_mode  =  'local-TF',

     mixing_beta = 0.7

   /

   &ions

     ion_dynamics = 'bfgs'

  /

   &cell

     cell_dynamics = 'bfgs',

   /

 ATOMIC_SPECIES

 Mo  95.5     Mo.pw91-n-van.UPF

 S   32.065   S.pw91-van_ak.UPF

K_POINTS {automatic}
  3  3  1 0 0 0
  
CELL_PARAMETERS (angstrom)
   7.080018738992396E+00   0.000000000000000E+00   0.000000000000000E+00
  -3.950648517819578E+00   5.813462028448473E+00   0.000000000000000E+00
  -8.317383328289022E-01   1.248345266739295E-01   2.115810790611916E+01
  
ATOMIC_POSITIONS (angstrom)
   Mo   2.443714663129450E+00   5.122418933621520E-01   3.686766057220290E+00
   Mo   5.285460874572050E-01   3.581521206241100E+00   3.101478956387610E+00
   Mo   5.964584389981330E+00   5.519044674208931E-01   3.158911072647220E+00
   Mo   4.044951442124030E+00   3.516980702220070E+00   3.554594257088530E+00
   Mo  -1.743001005419910E+00   2.465994435396150E+00   1.795089019446830E+01
   Mo  -3.740858517846470E+00   5.345306698454040E+00   1.756343034088760E+01
   Mo   1.802633162343640E+00   2.473645249697190E+00   1.768052164221550E+01
   Mo  -1.566198324040980E-01   5.370597390194660E+00   1.789594363182910E+01
    S  -1.355182925924380E+00   2.585660797086710E+00   4.358185595858580E+00
    S  -3.445449498523190E+00   5.481667534713600E+00   4.453475655964860E+00
    S   1.996928011867710E+00   2.697863517595310E+00   4.358051650225680E+00
    S   2.505702469740410E-01   5.538463507360880E+00   4.356298153556850E+00
    S   3.132849722992130E-01   1.311645471814490E+00   1.874928147159800E+01
    S  -1.663669177453910E+00   4.288418199492020E+00   1.894167518763880E+01
    S   3.815511717436470E+00   1.403912363235940E+00   1.891203719620370E+01
    S   1.874208790960410E+00   4.270698306517690E+00   1.875903099182970E+01
    S   4.240552810384820E-01   1.621007272935850E+00   2.224786890351580E+00
    S  -1.511224642129930E+00   4.633533709705220E+00   2.479011364657950E+00
    S   3.932697686125290E+00   1.695300182536200E+00   2.480425049166310E+00
    S   2.136402629474760E+00   4.538936013141870E+00   2.180258447708210E+00
    S   2.198143058307000E+00   3.660200725674510E-01   1.676178352396670E+01
    S   1.202123171059740E-01   3.290538721136230E+00   1.681090734104110E+01
    S   5.615478451666130E+00   3.715648680705070E-01   1.675060144719440E+01
    S   3.772242472349520E+00   3.281130280693530E+00   1.676884423554710E+01
