 &control

     calculation = 'relax',

     restart_mode='from_scratch',

     tprnfor=.true.

     prefix='MoS2',

     outdir='./tmp',

     max_seconds = 84500

     disk_io = 'none'

     pseudo_dir = '~/pseudo/',

     nstep= 4

 /

 &system

    ibrav = 0,

    nat =  36
    ntyp = 2

    ecutwfc = 45 , ecutrho = 360,

    occupations='smearing', smearing='mv', degauss=0.02

/

  &electrons

     diagonalization='david',

     mixing_mode  =  'local-TF',

     mixing_beta = 0.7

   /

   &ions

     ion_dynamics = 'bfgs'

  /

   &cell

     cell_dynamics = 'bfgs',

   /

 ATOMIC_SPECIES

 Mo  95.5     Mo.pw91-n-van.UPF

 S   32.065   S.pw91-van_ak.UPF

K_POINTS {automatic}
  3  3  1 0 0 0
  
CELL_PARAMETERS (angstrom)
   6.448003402210360E+00   0.000000000000000E+00   0.000000000000000E+00
   3.219888683823480E+00   5.619773699210130E+00   0.000000000000000E+00
   1.724569614713950E+00   5.050396973168300E-01   2.521190426230840E+01
  
ATOMIC_POSITIONS (angstrom)
   Mo   4.243165932430620E+00   1.607959372812960E+00   9.824035532935270E+00
   Mo   7.514992015733320E+00   1.510041825057980E+00   9.784363707242990E+00
   Mo   5.884887338995570E+00   4.355554726275760E+00   9.849966085357730E+00
   Mo   9.166617034358170E+00   4.405100210712880E+00   9.842720768925741E+00
   Mo   7.250195439991940E+00   4.044598947715680E+00   1.708825508482760E+01
   Mo   3.967362485347470E+00   4.078947618355730E+00   1.707148693501270E+01
   Mo   5.627474826747980E+00   1.210105155085160E+00   1.700114759461880E+01
   Mo   2.434933198888040E+00   1.245255696901510E+00   1.698294711880430E+01
   Mo   6.531037631835690E+00   3.843437009952230E+00   2.364804409186090E+01
   Mo   9.613636356108540E+00   3.773737867964840E+00   2.358615175838490E+01
   Mo   4.751870660105240E+00   1.028372110203920E+00   2.348535142760690E+01
   Mo   8.166560934446780E+00   1.034804906783730E+00   2.348092079930670E+01
    S   8.078538855780749E+00   2.789867621578850E+00   2.520692712748290E+01
    S   4.852571598648640E+00   2.875241352282460E+00   2.509551609345900E+01
    S   9.649956621803250E+00   5.770884140052140E+00   2.502530517965500E+01
    S   6.464758019506260E+00   5.742865414331190E+00   2.513783773121610E+01
    S   4.287322451345520E+00   3.485053244405460E+00   8.242850012284659E+00
    S   7.540317815028650E+00   3.439778697487680E+00   8.301034346257140E+00
    S   2.696991447163800E+00   5.767739357882140E-01   8.230782939350631E+00
    S   5.810697615555010E+00   6.484325644997140E-01   8.243522128539880E+00
    S   4.282861796091050E+00   3.434652176641770E+00   1.144911651168360E+01
    S   7.549577192261070E+00   3.379394098395760E+00   1.136757877311270E+01
    S   2.656573618718810E+00   6.045451151382500E-01   1.140799048198340E+01
    S   5.860105712789770E+00   6.889026919143960E-01   1.140468426802680E+01
    S   5.593404376759270E+00   3.150179933995750E+00   1.552369026095060E+01
    S   8.832649194545271E+00   3.147555887330160E+00   1.546990375095630E+01
    S   7.249846123286330E+00   5.862274618416600E+00   1.543736654442360E+01
    S   1.048778895544930E+01   5.909140216550000E+00   1.543464525179000E+01
    S   5.575839502414850E+00   3.075363199065080E+00   1.860560652871390E+01
    S   8.858314303114801E+00   3.060466779022310E+00   1.865043235183820E+01
    S   7.234690090080700E+00   5.952444427489230E+00   1.861689168018440E+01
    S   1.049846496032610E+01   5.987785161578720E+00   1.859464388248940E+01
    S   8.048190630218800E+00   2.903245052107950E+00   2.193703138938040E+01
    S   4.890934895864500E+00   2.983036513415040E+00   2.201154029796840E+01
    S   9.675512244184279E+00   5.667704252996590E+00   2.203414278984670E+01
    S   6.464913064514020E+00   5.571834738633330E+00   2.188418962292400E+01
