 &control

     calculation = 'scf',

     restart_mode='from_scratch',

     tprnfor=.true.

     prefix='MoS2',

     outdir='./tmp',

     max_seconds = 84500

     disk_io = 'none'

     pseudo_dir = '~/pseudo/',

 /

 &system

    ibrav = 0,

    nat =  24
    ntyp = 2

    ecutwfc = 45 , ecutrho = 360,

    occupations='smearing', smearing='mv', degauss=0.02

/

  &electrons

     diagonalization='david',

     mixing_mode  =  'local-TF',

     mixing_beta = 0.7

   /

   &ions

     ion_dynamics = 'bfgs'

  /

   &cell

     cell_dynamics = 'bfgs',

   /

 ATOMIC_SPECIES

 Mo  95.5     Mo.pw91-n-van.UPF

 S   32.065   S.pw91-van_ak.UPF

K_POINTS {automatic}
  3  5  1 0 0 0
  
CELL_PARAMETERS (angstrom)
   6.891938369907057E+00   0.000000000000000E+00   0.000000000000000E+00
  -1.658562022033061E+00   2.948395527753101E+00   0.000000000000000E+00
  -2.925759661108809E+00   1.472277082196371E+00   2.334564202943309E+01
  
ATOMIC_POSITIONS (angstrom)
   Mo   1.160293319911130E-01   1.708363550431710E+00   8.684328320730060E+00
   Mo  -3.087016757071270E+00   2.165247853744650E+00   2.061024667256750E+01
   Mo   3.616954668761500E+00   1.646504934845250E+00   8.099529378348899E+00
   Mo   3.686596278328730E-01   2.350438067828230E+00   2.096643717088690E+01
   Mo  -5.924484175356580E-01  -8.610234822118720E-01   3.161225170319120E+00
   Mo  -2.560599490744280E+00  -2.213722514262070E-01   1.469505900288930E+01
   Mo   2.835828019109560E+00  -8.597830443423050E-01   2.896435836737470E+00
   Mo   9.227830870788920E-01  -1.450911028692030E-01   1.425362639694230E+01
    S   2.132935006103610E+00   2.584441862173140E+00   9.285473901212820E+00
    S  -1.055105481916620E+00   3.338115411865990E+00   2.193553964153160E+01
    S   5.539340152325120E+00   2.768954128008320E+00   9.583366933265300E+00
    S   2.206483674265370E+00   3.382454870696440E+00   2.171160882503930E+01
    S  -4.845495122618790E-01   1.043372298933170E+00   1.997463001712000E+00
    S  -2.618855900907960E+00   1.804757827611200E+00   1.350412195947240E+01
    S   2.935022542645680E+00   1.112217978234070E+00   2.016369997157990E+00
    S   1.009395655703460E+00   1.852530393414500E+00   1.341461144003310E+01
    S  -4.596702313411390E-01   3.030203022422800E+00   4.033385533287600E+00
    S  -2.483985523904360E+00   3.822447407698730E+00   1.544965067608210E+01
    S   3.041025171267840E+00   3.030694471810870E+00   4.148995934098640E+00
    S   8.862839541271130E-01   3.708388931370940E+00   1.558211003006110E+01
    S   2.090806881753690E+00   7.319271027428680E-01   7.200663625653290E+00
    S  -1.117838127165540E+00   1.264406783752390E+00   1.984081014488810E+01
    S   5.543260238663750E+00   7.104364058838950E-01   7.400011559021510E+00
    S   2.217681046678480E+00   1.391679588545840E+00   1.969231336956710E+01
