 &control

     calculation = 'scf',

     restart_mode='from_scratch',

     tprnfor=.true.

     prefix='MoS2',

     outdir='./tmp',

     max_seconds = 84500

     disk_io = 'none'

     pseudo_dir = '~/pseudo/',

 /

 &system

    ibrav = 0,

    nat =  24
    ntyp = 2

    ecutwfc = 45 , ecutrho = 360,

    occupations='smearing', smearing='mv', degauss=0.02

/

  &electrons

     diagonalization='david',

     mixing_mode  =  'local-TF',

     mixing_beta = 0.7

   /

   &ions

     ion_dynamics = 'bfgs'

  /

   &cell

     cell_dynamics = 'bfgs',

   /

 ATOMIC_SPECIES

 Mo  95.5     Mo.pw91-n-van.UPF

 S   32.065   S.pw91-van_ak.UPF

K_POINTS {automatic}
  3  6  1 0 0 0
  
CELL_PARAMETERS (angstrom)
   6.777992948840138E+00   0.000000000000000E+00   0.000000000000000E+00
  -1.646566403386901E+00   2.938043364289531E+00   0.000000000000000E+00
  -3.842423416573217E+00  -6.634723853370313E+00   2.213582717438140E+01
  
ATOMIC_POSITIONS (angstrom)
   Mo  -5.577406584105190E-01  -1.947474800473880E+00   8.099782850805971E+00
   Mo  -4.226962790887740E+00  -6.556311872812560E+00   1.977018031144500E+01
   Mo   3.006077678836090E+00  -2.048406646800180E+00   8.029713106723699E+00
   Mo  -7.169652454075410E-01  -6.421387687026100E+00   1.936989453272500E+01
   Mo  -1.081120196498440E+00  -4.461165744576710E-01   3.046115314169910E+00
   Mo  -3.001955899864200E+00  -3.596542011709320E+00   1.373207088878750E+01
   Mo   2.436625091455130E+00  -3.553482412925260E-01   2.888480242371230E+00
   Mo   5.412173954847600E-01  -3.554070364442870E+00   1.362837490791420E+01
    S   1.257396607526780E+00  -3.020542929359340E+00   9.052689698781540E+00
    S  -2.249763818650140E+00  -5.395135396369990E+00   2.036853310516740E+01
    S   4.698209991249390E+00  -2.728883265624790E+00   9.127447757655951E+00
    S   8.454916147288480E-01  -5.399450622814220E+00   2.067184726362610E+01
    S  -8.378249340861070E-01   1.328009838810950E+00   1.880737133261410E+00
    S  -2.068862072183310E+00  -2.242709889499340E+00   1.261328352832080E+01
    S   2.827851477382770E+00   1.562927561286330E+00   1.984606669054930E+00
    S   1.340017700590700E+00  -1.933914677462210E+00   1.251205825412500E+01
    S   8.807074190139520E-01   3.707005809075110E-01   3.942116683047590E+00
    S  -4.684975554746320E+00  -2.831392850101820E+00   1.475735695361780E+01
    S   4.059889661625270E+00   7.291553410137940E-01   4.016246402753250E+00
    S  -7.704081219109780E-01  -2.626100321027570E+00   1.479405121692120E+01
    S   1.539808929964480E+00  -9.182364361631710E-01   7.103081833602150E+00
    S  -3.677611894789120E-01  -4.302720380695630E+00   1.845610780546050E+01
    S   4.720510278906820E+00  -1.039989216428310E+00   6.989898287397690E+00
    S   2.695970754466660E+00  -4.351635678050850E+00   1.877394788742350E+01
