 &control

     calculation = 'scf',

     restart_mode='from_scratch',

     tprnfor=.true.

     prefix='MoS2',

     outdir='./tmp',

     max_seconds = 84500

     disk_io = 'none'

     pseudo_dir = '~/pseudo/',

 /

 &system

    ibrav = 0,

    nat =  36
    ntyp = 2

    ecutwfc = 45 , ecutrho = 360,

    occupations='smearing', smearing='mv', degauss=0.02

/

  &electrons

     diagonalization='david',

     mixing_mode  =  'local-TF',

     mixing_beta = 0.7

   /

   &ions

     ion_dynamics = 'bfgs'

  /

   &cell

     cell_dynamics = 'bfgs',

   /

 ATOMIC_SPECIES

 Mo  95.5     Mo.pw91-n-van.UPF

 S   32.065   S.pw91-van_ak.UPF

K_POINTS {automatic}
  3  3  1 0 0 0
  
CELL_PARAMETERS (angstrom)
   6.386087157441637E+00   0.000000000000000E+00   0.000000000000000E+00
  -3.159167498723468E+00   5.540801451667118E+00   0.000000000000000E+00
  -6.299946530691911E-01  -5.188687191883997E-01   1.710552900735614E+01
  
ATOMIC_POSITIONS (angstrom)
   Mo   1.550177815461610E+00   9.623094217385020E-01   5.490319171468690E+00
   Mo  -9.698896296451839E-02   3.692604330342050E+00   5.539194660960440E+00
   Mo   4.693975575459990E+00   9.400979435732369E-01   5.603519345827810E+00
   Mo   3.089970178460720E+00   3.699556292767580E+00   6.082056949315630E+00
   Mo  -3.454786438644230E-01   1.386914345975180E+00   1.142197059882000E+01
   Mo  -1.962361045636800E+00   4.086702528942060E+00   1.125023373703700E+01
   Mo   2.860655432644050E+00   1.330686019729710E+00   1.149431092592680E+01
   Mo   1.257723157105840E+00   4.067731541927870E+00   1.131185244448440E+01
   Mo  -7.672118141793690E-01  -5.824230217279970E-01   1.688230433589390E+01
   Mo  -2.368738497624030E+00   2.173897773244410E+00   1.739456762781230E+01
   Mo   2.390361623875790E+00  -5.884340332082980E-01   1.738029946227580E+01
   Mo   8.851772982782860E-01   2.184010791848830E+00   1.693196347389350E+01
    S  -1.766332014612620E-01   1.746316105423550E+00   1.130941473939990E+00
    S  -1.760477609553880E+00   4.530681639705480E+00   1.293971644816610E+00
    S   2.952921373639050E+00   1.821627226617060E+00   1.308375403489990E+00
    S   1.395514017617340E+00   4.540288482737910E+00   1.152300026282700E+00
    S  -4.570658048462690E-02   2.392028740921140E-01   4.516101064387920E+00
    S  -1.710476440818510E+00   2.846616614356850E+00   4.566351867922070E+00
    S   3.184702749617400E+00   4.092211526538080E-02   4.371343706659650E+00
    S   1.538572679554260E+00   2.896507955663730E+00   4.529743099789320E+00
    S  -2.081431800448210E-01   5.696734962979970E-03   6.883822502008520E+00
    S  -1.750632618419230E+00   2.711313055714400E+00   6.939048394312920E+00
    S   3.034459770766280E+00  -1.331589177304700E-01   6.732947172014990E+00
    S   1.518504994780840E+00   2.636479187506530E+00   6.890501426862030E+00
    S   1.009007131443510E+00   2.265902428696440E-01   1.020265210512720E+01
    S  -4.549375484389300E-01   3.003899847733010E+00   1.016704562899880E+01
    S   4.308484637957740E+00   2.847944902411830E-01   1.028342031060330E+01
    S   2.711198184380450E+00   2.956438182258840E+00   1.021184853882250E+01
    S   1.260822982758940E+00   7.344911876286190E-01   1.256814401801360E+01
    S  -2.824708791505370E-01   3.523304714043030E+00   1.249419770220420E+01
    S   4.458664911280900E+00   9.675513257301990E-01   1.262719651128500E+01
    S   2.870195359998780E+00   3.648681553141350E+00   1.250765799989320E+01
    S  -5.663223792845680E-01   1.211838249886260E+00   1.586850126225480E+01
    S  -2.303920856136610E+00   3.972799212354250E+00   1.602745483517320E+01
    S   2.595265663065240E+00   1.182776337405020E+00   1.606028473124460E+01
    S   9.495579420877980E-01   3.991096506451960E+00   1.588644051733590E+01
