 &control

     calculation = 'relax',

     restart_mode='from_scratch',

     tprnfor=.true.

     prefix='MoS2',

     outdir='./tmp',

     max_seconds = 84500

     disk_io = 'none'

     pseudo_dir = '~/pseudo/',

     nstep= 4

 /

 &system

    ibrav = 0,

    nat =  24
    ntyp = 2

    ecutwfc = 45 , ecutrho = 360,

    occupations='smearing', smearing='mv', degauss=0.02

/

  &electrons

     diagonalization='david',

     mixing_mode  =  'local-TF',

     mixing_beta = 0.7

   /

   &ions

     ion_dynamics = 'bfgs'

  /

   &cell

     cell_dynamics = 'bfgs',

   /

 ATOMIC_SPECIES

 Mo  95.5     Mo.pw91-n-van.UPF

 S   32.065   S.pw91-van_ak.UPF

K_POINTS {automatic}
  3  3  1 0 0 0
  
CELL_PARAMETERS (angstrom)
   6.286290894950560E+00   0.000000000000000E+00   0.000000000000000E+00
   2.140985867468450E+00   5.907446168537820E+00   0.000000000000000E+00
   1.417313089952460E+00  -4.523182888369940E-01   1.432337426330030E+01
  
ATOMIC_POSITIONS (angstrom)
   Mo   4.509424800865260E+00   3.631022165771700E+00   6.348454916616600E+00
   Mo   7.155943338320020E+00   1.824176822491150E+00   1.017389273739500E+00
   Mo   7.155884561338250E+00   5.086522665085870E+00   8.800402353961900E+00
   Mo   7.048567808858090E+00   5.320117924816280E+00   1.309166782653010E+01
   Mo   4.011792720140220E+00   6.934635570340980E-01   1.089065010835960E+01
   Mo   6.753162004146510E+00   3.578260466108620E+00   1.108683588337660E+01
   Mo   4.413509372983890E+00   1.594085728184450E+00   4.729599741336420E+00
   Mo   3.280883029386500E+00   5.516447764230720E+00   2.611211588422790E+00
    S   4.984095931784260E+00   5.567915532763960E+00   4.364862678652110E+00
    S   3.304426878093590E+00   3.636557404826580E+00   4.246404522723190E+00
    S   7.930062484461990E+00   1.534708745416270E+00   1.117225869248500E+01
    S   8.235916014370069E+00   5.361270613959530E+00   1.091841431171050E+01
    S   4.897623254407540E+00   4.891762140714670E+00   1.204136526174990E+01
    S   6.392072768560610E+00   2.872284507990790E+00   8.923039481006370E+00
    S   1.507959450362480E+00   4.060342989356100E+00   1.825922633765860E+00
    S   6.156125426814150E+00   1.342750433332920E+00   3.099179751325180E+00
    S   7.150261100751920E+00   5.870953893464230E-01   1.350594301005630E+01
    S   3.895713078417650E+00  -1.520486149860030E-01   6.747325417759050E+00
    S   7.403988841123260E+00   3.090916316454850E+00   1.344960190255690E+01
    S   3.058729159776460E+00   5.112679456257620E+00   7.855467395747080E+00
    S   2.520983433568730E+00   2.076349810896430E-01   9.367244295007660E-01
    S   5.661424247797900E+00   1.697104807485960E+00   6.702554330204680E+00
    S   5.180767800990510E+00   2.052696601870750E+00   1.236234941137060E+01
    S   4.212833729287220E+00   1.510710494524500E+00   8.743972772396260E+00
