 &control

     calculation = 'scf',

     restart_mode='from_scratch',

     tprnfor=.true.

     prefix='MoS2',

     outdir='./tmp',

     max_seconds = 84500

     disk_io = 'none'

     pseudo_dir = '~/pseudo/',

 /

 &system

    ibrav = 0,

    nat =  36
    ntyp = 2

    ecutwfc = 45 , ecutrho = 360,

    occupations='smearing', smearing='mv', degauss=0.02

/

  &electrons

     diagonalization='david',

     mixing_mode  =  'local-TF',

     mixing_beta = 0.7

   /

   &ions

     ion_dynamics = 'bfgs'

  /

   &cell

     cell_dynamics = 'bfgs',

   /

 ATOMIC_SPECIES

 Mo  95.5     Mo.pw91-n-van.UPF

 S   32.065   S.pw91-van_ak.UPF

K_POINTS {automatic}
  3  3  1 0 0 0
  
CELL_PARAMETERS (angstrom)
   6.540145750000000E+00   0.000000000000000E+00   0.000000000000000E+00
  -3.270073900000000E+00   5.663932700000000E+00   0.000000000000000E+00
   0.000000000000000E+00   0.000000000000000E+00   3.312646865000000E+01
  
ATOMIC_POSITIONS (angstrom)
   Mo   1.643997089421680E+00   9.895684702100560E-01   1.945305606976160E-01
   Mo   7.777881700177749E-02   3.958811542454820E+00   2.266698222337870E-02
   Mo   4.918732462171390E+00   1.118417290518210E+00   9.689590418724980E-02
   Mo   3.209475763334960E+00   3.880354558587520E+00   1.594629662898020E-01
   Mo  -4.806718473452030E-02   1.889283210208140E+00   2.530685339131930E+01
   Mo  -1.645553433185510E+00   4.755602275719310E+00   2.530447283706120E+01
   Mo   3.318412899555000E+00   1.884060976194990E+00   2.530695728986410E+01
   Mo   1.503200406504460E+00   4.869643885877410E+00   2.548649196633590E+01
   Mo  -9.027186855241390E-02   1.819779790081280E+00   7.460556120603430E+00
   Mo  -1.475668168626050E+00   4.600367872255570E+00   7.642868127382400E+00
   Mo   3.366315520719090E+00   1.721095992812870E+00   7.571748545927650E+00
   Mo   1.494077720501820E+00   4.686820869739150E+00   7.763445479818380E+00
    S  -4.765839766575580E-02   2.009815536772720E+00   1.755293321646390E+00
    S  -1.762965069485540E+00   4.570847890396040E+00   1.641500007466790E+00
    S   3.277245360011470E+00   1.874613140414450E+00   1.404592833271050E+00
    S   1.630307645992080E+00   4.723152685134760E+00   1.803935151682210E+00
    S   1.517137789380860E+00   8.088751160467860E-01   2.719353807553490E+01
    S  -7.314430415125740E-03   3.720330604470930E+00   2.729694111901470E+01
    S   4.755618253177340E+00   1.052370507073940E+00   2.718181625095760E+01
    S   3.416280487541300E+00   3.691269566315210E+00   2.699795645317000E+01
    S   1.778600437851830E+00   9.836070315484270E-01   9.096005922368960E+00
    S   9.514379078473990E-02   3.646569712217300E+00   9.110302729961809E+00
    S   4.884085255422380E+00   9.776095398124680E-01   9.425527293213070E+00
    S   3.268639853621180E+00   3.774406539840020E+00   9.029509065505209E+00
    S   1.927060093724400E-02   1.856577670714610E+00   3.132587481465820E+01
    S  -1.609164567083360E+00   4.704511216537190E+00   3.132473413247100E+01
    S   3.321930253259170E+00   2.022329167180980E+00   3.138366967778650E+01
    S   1.722681767196440E+00   4.566118164307560E+00   3.161548527826970E+01
    S   1.687773403125420E+00   7.969801523981300E-01   2.402190152187260E+01
    S  -7.299044609066591E-02   3.857665854839900E+00   2.372965227592150E+01
    S   4.852054320763670E+00   9.074312418084670E-01   2.370763337528800E+01
    S   3.330008442163160E+00   3.852165030029860E+00   2.407189855476270E+01
    S   1.607436737756550E+00   8.536363237286760E-01   5.845217186056740E+00
    S   2.850900134299850E-02   3.672092041683230E+00   6.190020419351320E+00
    S   4.794670164345610E+00   9.275178396090770E-01   5.855571065279220E+00
    S   3.187303184634810E+00   3.741713311619720E+00   5.842677611908490E+00
