 &control

     calculation = 'scf',

     restart_mode='from_scratch',

     tprnfor=.true.

     prefix='MoS2',

     outdir='./tmp',

     max_seconds = 84500

     disk_io = 'none'

     pseudo_dir = '~/pseudo/',

 /

 &system

    ibrav = 0,

    nat =  12
    ntyp = 2

    ecutwfc = 45 , ecutrho = 360,

    occupations='smearing', smearing='mv', degauss=0.02

/

  &electrons

     diagonalization='david',

     mixing_mode  =  'local-TF',

     mixing_beta = 0.7

   /

   &ions

     ion_dynamics = 'bfgs'

  /

   &cell

     cell_dynamics = 'bfgs',

   /

 ATOMIC_SPECIES

 Mo  95.5     Mo.pw91-n-van.UPF

 S   32.065   S.pw91-van_ak.UPF

K_POINTS {automatic}
  3  3  1 0 0 0
  
CELL_PARAMETERS (angstrom)
   6.221114250000000E+00   0.000000000000000E+00   0.000000000000000E+00
  -3.110558100000000E+00   5.387643300000001E+00   0.000000000000000E+00
   0.000000000000000E+00   0.000000000000000E+00   1.700351445000000E+01
  
ATOMIC_POSITIONS (angstrom)
   Mo   6.586546007010230E-04   3.964343153141200E-02   9.180394605097990E-02
   Mo  -1.514172327306700E+00   2.718445669667540E+00   8.777183491775030E-02
   Mo   3.197261967910880E+00   2.298440762231570E-02   4.420392767675050E-02
   Mo   1.647193037228120E+00   2.720160721166570E+00  -2.928981134600900E-02
    S   4.980520906438290E-02   1.728480226471040E+00   1.580314423048030E+00
    S  -1.522237706686740E+00   4.538647617300250E+00   1.606460246094430E+00
    S   3.024280092647350E+00   1.791233139234880E+00   1.475410711700630E+00
    S   1.463905718443470E+00   4.449753787821070E+00   1.518313236065810E+00
    S   2.882371606344110E-02   1.815864645403760E+00   1.557140218847590E+01
    S  -1.554877500150790E+00   4.475079575435120E+00   1.537883101064660E+01
    S   3.079896907834610E+00   1.756770178271390E+00   1.539097760615030E+01
    S   1.490864117404660E+00   4.566171572086680E+00   1.547582095783530E+01
