 &control

     calculation = 'scf',

     restart_mode='from_scratch',

     tprnfor=.true.

     prefix='MoS2',

     outdir='./tmp',

     max_seconds = 84500

     disk_io = 'none'

     pseudo_dir = '~/pseudo/',

 /

 &system

    ibrav = 0,

    nat =  24
    ntyp = 2

    ecutwfc = 45 , ecutrho = 360,

    occupations='smearing', smearing='mv', degauss=0.02

/

  &electrons

     diagonalization='david',

     mixing_mode  =  'local-TF',

     mixing_beta = 0.7

   /

   &ions

     ion_dynamics = 'bfgs'

  /

   &cell

     cell_dynamics = 'bfgs',

   /

 ATOMIC_SPECIES

 Mo  95.5     Mo.pw91-n-van.UPF

 S   32.065   S.pw91-van_ak.UPF

K_POINTS {automatic}
  3  5  1 0 0 0
  
CELL_PARAMETERS (angstrom)
   6.886657964941924E+00   0.000000000000000E+00   0.000000000000000E+00
  -1.792492354808716E+00   2.965563846069019E+00   0.000000000000000E+00
  -3.401446925792152E+00   3.645754625108860E-01   2.374296176153692E+01
  
ATOMIC_POSITIONS (angstrom)
   Mo   2.151109973491700E-01   1.435552131338640E+00   8.764679664541800E+00
   Mo  -3.534590629735170E+00   1.360301860294180E+00   2.129216879349030E+01
   Mo   3.652745066026690E+00   1.210900228399450E+00   8.314215125889840E+00
   Mo  -1.227145011043190E-01   1.359370496350570E+00   2.113852211257260E+01
   Mo  -5.830212828473520E-01  -1.105516330150210E+00   3.256651706477280E+00
   Mo  -2.973534725856550E+00  -9.788940061322779E-01   1.485363774663950E+01
   Mo   2.805269480425420E+00  -1.167472669530180E+00   2.917075369231040E+00
   Mo   5.187772373219360E-01  -1.053644576925240E+00   1.451368007813520E+01
    S   2.099833375114020E+00   2.529340252621650E+00   9.461281801568530E+00
    S  -1.831935427351520E+00   2.419167313698500E+00   2.215572015239820E+01
    S   5.565531415325960E+00   2.563144317218600E+00   9.685445781372170E+00
    S   1.511948563772680E+00   2.441544918571180E+00   2.232836591522000E+01
    S  -6.970965807290600E-01   8.491210027839680E-01   2.048870397949670E+00
    S  -3.044940476443290E+00   1.045017098680150E+00   1.370275817684180E+01
    S   2.770211942472330E+00   8.312586290717170E-01   2.039101039668360E+00
    S   4.763016403920020E-01   1.078421756374910E+00   1.360952413800840E+01
    S  -6.985242536276900E-01   2.846420261221030E+00   4.030644273672800E+00
    S  -3.027541779344490E+00   3.074008455063820E+00   1.560755475048690E+01
    S   2.777185129128530E+00   2.819454852679870E+00   4.086836628734020E+00
    S   3.404510980387210E-01   3.027652437317990E+00   1.575969803268560E+01
    S   2.130551377075760E+00   2.959542622827490E-01   7.464902096698790E+00
    S  -1.741650468333250E+00   4.010937997736890E-01   2.018319206473730E+01
    S   5.584788795041160E+00   5.486385848811260E-01   7.488509440249720E+00
    S   1.705608294470150E+00   6.662859591945050E-01   2.013372230034070E+01
