 &control

     calculation = 'relax',

     restart_mode='from_scratch',

     tprnfor=.true.

     prefix='MoS2',

     outdir='./tmp',

     max_seconds = 84500

     disk_io = 'none'

     pseudo_dir = '~/pseudo/',

     nstep= 4

 /

 &system

    ibrav = 0,

    nat =  24
    ntyp = 2

    ecutwfc = 45 , ecutrho = 360,

    occupations='smearing', smearing='mv', degauss=0.02

/

  &electrons

     diagonalization='david',

     mixing_mode  =  'local-TF',

     mixing_beta = 0.7

   /

   &ions

     ion_dynamics = 'bfgs'

  /

   &cell

     cell_dynamics = 'bfgs',

   /

 ATOMIC_SPECIES

 Mo  95.5     Mo.pw91-n-van.UPF

 S   32.065   S.pw91-van_ak.UPF

K_POINTS {automatic}
  3  3  1 0 0 0
  
CELL_PARAMETERS (angstrom)
   6.476400375932020E+00   0.000000000000000E+00   0.000000000000000E+00
   3.257258915852270E+00   5.588505582646200E+00   0.000000000000000E+00
   2.702464632308110E+00  -1.234240596512100E+00   1.683159966702490E+01
  
ATOMIC_POSITIONS (angstrom)
   Mo   6.539614389816220E+00   8.353832027873400E-01   3.364193391415040E+00
   Mo   3.306683129928560E+00   8.198392401556380E-01   3.348076608903440E+00
   Mo   4.922341638400810E+00   3.614041088299540E+00   3.390103406893810E+00
   Mo   8.167074061254700E+00   3.608359664028340E+00   3.421208661052430E+00
   Mo   5.886046931869980E+00   3.542203158392830E+00   1.352207751631270E+01
   Mo   9.120876729509170E+00   3.513554804153710E+00   1.344596454861530E+01
   Mo   7.486570455936790E+00   7.270647345686070E-01   1.349478234897240E+01
   Mo   4.270243826876480E+00   7.430194866013730E-01   1.353788460994270E+01
    S   6.557022895276790E+00   2.710799966336180E+00   1.804115179592060E+00
    S   3.293302757853520E+00   2.704737385585490E+00   1.801704048288200E+00
    S   1.671572972712300E+00  -1.188849373996060E-01   1.788607704042610E+00
    S   4.934480067723050E+00  -1.449610207497760E-01   1.794194174279510E+00
    S   4.287130209674800E+00  -1.146943760436230E+00   1.508095147443310E+01
    S   7.448133683835710E+00  -1.143127409528420E+00   1.507537465331630E+01
    S   9.088995485678121E+00   1.682376691924970E+00   1.507220276080410E+01
    S   5.902653482967470E+00   1.674879957251340E+00   1.510747305971170E+01
    S   7.485726211124520E+00   4.492469328833870E+00   1.193583060853110E+01
    S   1.076064070965640E+01   4.455223254271310E+00   1.191606541274290E+01
    S   9.134952754611920E+00   1.604755158792240E+00   1.192440779458680E+01
    S   5.867466200881310E+00   1.686869642494210E+00   1.194710204439320E+01
    S   6.527315408864810E+00   2.680456353864100E+00   4.967663430220210E+00
    S   3.319249113588500E+00   2.654041485273340E+00   4.961151780766140E+00
    S   1.687493755769470E+00  -8.760389563329950E-02   4.932916890067750E+00
    S   4.921096884744380E+00  -8.023371833016160E-02   4.939855581047690E+00
