 &control

     calculation = 'scf',

     restart_mode='from_scratch',

     tprnfor=.true.

     prefix='MoS2',

     outdir='./tmp',

     max_seconds = 84500

     disk_io = 'none'

     pseudo_dir = '~/pseudo/',

 /

 &system

    ibrav = 0,

    nat =  36
    ntyp = 2

    ecutwfc = 45 , ecutrho = 360,

    occupations='smearing', smearing='mv', degauss=0.02

/

  &electrons

     diagonalization='david',

     mixing_mode  =  'local-TF',

     mixing_beta = 0.7

   /

   &ions

     ion_dynamics = 'bfgs'

  /

   &cell

     cell_dynamics = 'bfgs',

   /

 ATOMIC_SPECIES

 Mo  95.5     Mo.pw91-n-van.UPF

 S   32.065   S.pw91-van_ak.UPF

K_POINTS {automatic}
  3  3  1 0 0 0
  
CELL_PARAMETERS (angstrom)
   6.221114250000000E+00   0.000000000000000E+00   0.000000000000000E+00
  -3.110558100000000E+00   5.387643300000001E+00   0.000000000000000E+00
   0.000000000000000E+00   0.000000000000000E+00   3.151054335000000E+01
  
ATOMIC_POSITIONS (angstrom)
   Mo   1.531593729828740E+00   8.026961144908480E-01   1.917371313415220E-02
   Mo   5.517476291121130E-02   3.658578520252610E+00  -4.991297213027620E-02
   Mo   4.696241417211420E+00   8.970307703430550E-01  -9.526148345322200E-02
   Mo   3.015398221366730E+00   3.565104604663330E+00  -1.529808000249230E-02
   Mo  -1.467832622518510E-02   1.742126346061030E+00   2.434007257083250E+01
   Mo  -1.619126583265170E+00   4.566002466007450E+00   2.426714738152960E+01
   Mo   3.096678987059310E+00   1.794205036814040E+00   2.435605521300360E+01
   Mo   1.614793383354260E+00   4.427144171425420E+00   2.420659860363150E+01
   Mo  -5.736317794933700E-02   1.714482930287580E+00   7.262664742902780E+00
   Mo  -1.649540401926480E+00   4.509789832504320E+00   7.226828851902370E+00
   Mo   3.067089460873110E+00   1.743801976316700E+00   7.180032721047760E+00
   Mo   1.638901778793580E+00   4.516805682104530E+00   7.301174539023710E+00
    S   7.116091310311150E-03   1.794236744241120E+00   1.426039238476510E+00
    S  -1.561072000895540E+00   4.471679255901130E+00   1.427580447647660E+00
    S   3.047406255296200E+00   1.732543867825560E+00   1.481045222122750E+00
    S   1.495536367730290E+00   4.568418159146710E+00   1.510436479238310E+00
    S   1.594614710841190E+00   8.924003258076610E-01   2.569100539240210E+01
    S  -2.127618145972890E-03   3.591699190330200E+00   2.588275467872050E+01
    S   4.690747139602130E+00   8.211802461142100E-01   2.572372244238450E+01
    S   3.144912326673200E+00   3.685652539452500E+00   2.578072361070540E+01
    S   1.608143599734150E+00   8.255434856948860E-01   8.823598161542259E+00
    S   6.973323941115350E-02   3.635931063562530E+00   8.722830019664730E+00
    S   4.644092319744430E+00   8.445385402652400E-01   8.860982176294600E+00
    S   3.121785312803440E+00   3.589850387031950E+00   8.679929158885360E+00
    S   2.696598233660730E-03   1.734912307964120E+00   3.006398884819600E+01
    S  -1.545529862574400E+00   4.515230650642180E+00   3.008096534695630E+01
    S   3.109742121908090E+00   1.709970783437370E+00   2.993359905227210E+01
    S   1.561700471570720E+00   4.468195581839790E+00   2.988732323267660E+01
    S   1.635290244606010E+00   9.579242229890230E-01   2.273171743104650E+01
    S  -8.127561531135780E-02   3.563027816824410E+00   2.268058431574250E+01
    S   4.674934155325590E+00   9.305466084080700E-01   2.282536067846290E+01
    S   3.076479107801870E+00   3.653009306103650E+00   2.265993945061220E+01
    S   1.504743290288040E+00   8.624820309927520E-01   5.806434939405140E+00
    S  -3.710143722927370E-02   3.662968057397390E+00   5.787373161823620E+00
    S   4.682271653265450E+00   8.644937870446470E-01   5.820562973272350E+00
    S   3.130995875742400E+00   3.672080880837430E+00   5.671810123229640E+00
