 &control

     calculation = 'scf',

     restart_mode='from_scratch',

     tprnfor=.true.

     prefix='MoS2',

     outdir='./tmp',

     max_seconds = 84500

     disk_io = 'none'

     pseudo_dir = '~/pseudo/',

 /

 &system

    ibrav = 0,

    nat =  36
    ntyp = 2

    ecutwfc = 45 , ecutrho = 360,

    occupations='smearing', smearing='mv', degauss=0.02

/

  &electrons

     diagonalization='david',

     mixing_mode  =  'local-TF',

     mixing_beta = 0.7

   /

   &ions

     ion_dynamics = 'bfgs'

  /

   &cell

     cell_dynamics = 'bfgs',

   /

 ATOMIC_SPECIES

 Mo  95.5     Mo.pw91-n-van.UPF

 S   32.065   S.pw91-van_ak.UPF

K_POINTS {automatic}
  3  3  1 0 0 0
  
CELL_PARAMETERS (angstrom)
   6.380630000000000E+00   0.000000000000000E+00   0.000000000000000E+00
  -3.190316000000000E+00   5.525788000000000E+00   0.000000000000000E+00
   0.000000000000000E+00   0.000000000000000E+00   3.231850600000000E+01
  
ATOMIC_POSITIONS (angstrom)
   Mo   1.658066793976350E+00   8.434845620256990E-01  -6.290990139172760E-03
   Mo   6.891421765519180E-03   3.729875490206410E+00   8.851490435605081E-02
   Mo   4.803578989022920E+00   8.278798158330810E-01   3.174253901775140E-02
   Mo   3.241883757375100E+00   3.684556864354740E+00   8.567537719373799E-02
   Mo  -8.672348591506920E-02   1.890182995196600E+00   2.489130216354610E+01
   Mo  -1.578666647507910E+00   4.678894569555900E+00   2.481388488769020E+01
   Mo   3.129168722711230E+00   1.830528898827250E+00   2.480070903407750E+01
   Mo   1.629131945078910E+00   4.633020953176870E+00   2.496873682852950E+01
   Mo   5.598712118366970E-02   1.909172986329900E+00   7.391082682436280E+00
   Mo  -1.659503527123200E+00   4.658966249738360E+00   7.385377812956020E+00
   Mo   3.099639149091050E+00   1.799836659000380E+00   7.436970158280640E+00
   Mo   1.584886907201290E+00   4.597710129781730E+00   7.340277149263110E+00
    S  -1.116625575090700E-02   1.919131798280450E+00   1.627466572559230E+00
    S  -1.674412996154290E+00   4.649526198853130E+00   1.523413209575910E+00
    S   3.132854327027520E+00   1.849163466943290E+00   1.483370313147020E+00
    S   1.635872045696020E+00   4.664829486733860E+00   1.496035827680710E+00
    S   1.577160670755920E+00   8.891784974896590E-01   2.653696427661670E+01
    S  -1.186607759241680E-02   3.584838170847540E+00   2.645124292396430E+01
    S   4.732298667701210E+00   9.243602670486160E-01   2.652849604577590E+01
    S   3.157669541255600E+00   3.778070834520140E+00   2.643625139469520E+01
    S   1.595718570115570E+00   1.020708885693560E+00   9.011501166035670E+00
    S   5.831523748756600E-03   3.687748308222050E+00   9.104142266603439E+00
    S   4.707317084600690E+00   9.440826682285460E-01   8.946448406950079E+00
    S   3.281506466402750E+00   3.706816384686940E+00   9.038405677550660E+00
    S   2.771357993416290E-03   1.792445125789030E+00   3.066675811823220E+01
    S  -1.607209253711390E+00   4.594232843499050E+00   3.065490682990980E+01
    S   3.122167001120410E+00   1.847789180065150E+00   3.082656219382610E+01
    S   1.507293384499150E+00   4.558175847337790E+00   3.074340132793910E+01
    S   1.521080356272590E+00   9.348578460553030E-01   2.324839624229890E+01
    S   9.169264549851031E-02   3.644151865750060E+00   2.331812677535950E+01
    S   4.856181354588730E+00   9.299802396025399E-01   2.324398102621810E+01
    S   3.121454956577470E+00   3.755063915292740E+00   2.332782353304290E+01
    S   1.643810812221660E+00   9.761804155718390E-01   5.942337873419760E+00
    S  -9.820852441353881E-02   3.666723492924680E+00   5.866801034983330E+00
    S   4.798929886055840E+00   9.949481558466891E-01   5.940550257909880E+00
    S   3.216506388631750E+00   3.695792523807170E+00   5.970400370897730E+00
