 &control

     calculation = 'scf',

     restart_mode='from_scratch',

     tprnfor=.true.

     prefix='MoS2',

     outdir='./tmp',

     max_seconds = 84500

     disk_io = 'none'

     pseudo_dir = '~/pseudo/',

 /

 &system

    ibrav = 0,

    nat =  24
    ntyp = 2

    ecutwfc = 45 , ecutrho = 360,

    occupations='smearing', smearing='mv', degauss=0.02

/

  &electrons

     diagonalization='david',

     mixing_mode  =  'local-TF',

     mixing_beta = 0.7

   /

   &ions

     ion_dynamics = 'bfgs'

  /

   &cell

     cell_dynamics = 'bfgs',

   /

 ATOMIC_SPECIES

 Mo  95.5     Mo.pw91-n-van.UPF

 S   32.065   S.pw91-van_ak.UPF

K_POINTS {automatic}
  3  3  2 0 0 0
  
CELL_PARAMETERS (angstrom)
   6.385836000000000E+00   0.000000000000000E+00   0.000000000000000E+00
  -3.192918000000000E+00   5.530296000000000E+00   0.000000000000000E+00
   0.000000000000000E+00   0.000000000000000E+00   1.398276800000000E+01
  
ATOMIC_POSITIONS (angstrom)
   Mo   7.984893297588590E-02  -1.707927037290520E-01   1.042033770323170E+01
   Mo  -1.556743951390100E+00   2.763468196800190E+00   1.068308593131760E+01
   Mo   2.995302131334750E+00   7.297449833034500E-03   1.045716420169880E+01
   Mo   1.580842028888500E+00   2.796371007011230E+00   1.068400551542740E+01
   Mo  -1.000165926414970E-01   3.889376399402800E-02   3.326920093810720E+00
   Mo  -1.487173914066320E+00   2.636197464983610E+00   3.388787699284570E+00
   Mo   3.193560293141880E+00  -1.110559929507970E-02   3.296001606831430E+00
   Mo   1.640741404396390E+00   2.701757340183360E+00   3.680138992138350E+00
    S   1.574158640695120E+00   8.532068355118940E-01   1.186669950647170E+01
    S  -1.486933294822500E-01   3.794789228965770E+00   1.197426701929870E+01
    S   4.726374653595090E+00   9.103308229234069E-01   1.224274719417070E+01
    S   3.225223045615290E+00   3.499307102507350E+00   1.211474740989760E+01
    S  -1.813500264836430E-01   1.867109780168320E+00   2.010441511416660E+00
    S  -1.421052971073620E+00   4.605133806428300E+00   1.833473837757230E+00
    S   3.179045478345310E+00   1.825831559619360E+00   2.128236647003620E+00
    S   1.500709258825480E+00   4.739952791830760E+00   1.812989810821730E+00
    S  -2.294576087309950E-03   1.933975892756580E+00   4.883571533449900E+00
    S  -1.579309859511520E+00   4.417216033372780E+00   5.117433623410560E+00
    S   3.045190973812030E+00   1.764241720864610E+00   5.171002255558660E+00
    S   1.481376898797710E+00   4.680078690628230E+00   5.209008717586380E+00
    S   1.747532216607480E+00   1.041257042005900E+00   8.974611735893109E+00
    S   9.055377957589800E-02   3.865185514755420E+00   8.919692374944560E+00
    S   4.947610564866910E+00   7.993998268664240E-01   8.922154283668730E+00
    S   3.157990465501540E+00   3.763621286561600E+00   8.739529282259120E+00
