 &control

     calculation = 'scf',

     restart_mode='from_scratch',

     tprnfor=.true.

     prefix='MoS2',

     outdir='./tmp',

     max_seconds = 84500

     disk_io = 'none'

     pseudo_dir = '~/pseudo/',

 /

 &system

    ibrav = 0,

    nat =  24
    ntyp = 2

    ecutwfc = 45 , ecutrho = 360,

    occupations='smearing', smearing='mv', degauss=0.02

/

  &electrons

     diagonalization='david',

     mixing_mode  =  'local-TF',

     mixing_beta = 0.7

   /

   &ions

     ion_dynamics = 'bfgs'

  /

   &cell

     cell_dynamics = 'bfgs',

   /

 ATOMIC_SPECIES

 Mo  95.5     Mo.pw91-n-van.UPF

 S   32.065   S.pw91-van_ak.UPF

K_POINTS {automatic}
  3  3  2 0 0 0
  
CELL_PARAMETERS (angstrom)
   6.816934692839727E+00   0.000000000000000E+00   0.000000000000000E+00
  -3.613006460878738E+00   5.688232169564416E+00   0.000000000000000E+00
  -8.055181149602031E-01  -1.481421444326831E+00   1.207739258498558E+01
  
ATOMIC_POSITIONS (angstrom)
   Mo  -1.796529108056300E-01  -8.543307491092840E-01   9.257121859653870E+00
   Mo  -1.799356506452280E+00   2.010815171763610E+00   9.188289755361680E+00
   Mo   3.332123427180370E+00  -8.082881210418610E-01   9.078726245786500E+00
   Mo   1.532483311677640E+00   2.113772299696730E+00   8.827086766745889E+00
   Mo  -7.912375824252750E-01   1.666877042196230E-01   3.413739029169710E+00
   Mo  -2.528851046478120E+00   2.603033453806580E+00   2.352861533508500E+00
   Mo   2.552145661497240E+00  -6.094678222253530E-02   3.431093549236770E+00
   Mo   8.431708962095610E-01   3.051079099160730E+00   2.682901723414840E+00
    S   1.804577951788900E+00  -1.910966987844250E+00   1.025795650270340E+01
    S  -2.290292949106060E-01   9.933250472523680E-01   9.906082765710289E+00
    S   5.218432061455560E+00  -1.885919266225310E+00   1.013963434718460E+01
    S   3.260264921534780E+00   1.252470157144880E+00   1.003230556643000E+01
    S  -1.128325687386580E+00   1.248322167783890E+00   1.671229516950270E+00
    S  -4.059026940424900E+00   4.246950040318240E+00   2.134326140657740E+00
    S   2.504193553276010E+00   1.493922227326160E+00   1.971056775438760E+00
    S  -8.256259769653930E-01   4.121394039801830E+00   1.973168910708740E+00
    S   6.915929479450560E-01   1.692496454184320E+00   4.046526616365290E+00
    S  -2.655199245390900E+00   4.750512905632080E+00   4.111604216491210E+00
    S   4.417302458697130E+00   1.557641527889610E+00   4.062603518466680E+00
    S   8.174825327126910E-01   4.575957134761250E+00   4.072022984571290E+00
    S   1.761959396234840E+00  -1.859524292665900E-01   8.157472779229810E+00
    S  -5.382898010395880E-02   2.964527010347380E+00   8.084361362473199E+00
    S   4.926141225145630E+00   1.173278689608760E-01   8.051182924249980E+00
    S   3.186287519756880E+00   3.080390874927890E+00   8.103105506381800E+00
