 &control

     calculation = 'scf',

     restart_mode='from_scratch',

     tprnfor=.true.

     prefix='MoS2',

     outdir='./tmp',

     max_seconds = 84500

     disk_io = 'none'

     pseudo_dir = '~/pseudo/',

 /

 &system

    ibrav = 0,

    nat =  24
    ntyp = 2

    ecutwfc = 45 , ecutrho = 360,

    occupations='smearing', smearing='mv', degauss=0.02

/

  &electrons

     diagonalization='david',

     mixing_mode  =  'local-TF',

     mixing_beta = 0.7

   /

   &ions

     ion_dynamics = 'bfgs'

  /

   &cell

     cell_dynamics = 'bfgs',

   /

 ATOMIC_SPECIES

 Mo  95.5     Mo.pw91-n-van.UPF

 S   32.065   S.pw91-van_ak.UPF

K_POINTS {automatic}
  3  3  2 0 0 0
  
CELL_PARAMETERS (angstrom)
   6.575920075937207E+00   0.000000000000000E+00   0.000000000000000E+00
  -3.512534147260514E+00   5.828273088053678E+00   0.000000000000000E+00
  -8.246945475665555E-01  -1.440471949615399E+00   1.130328723131419E+01
  
ATOMIC_POSITIONS (angstrom)
   Mo   5.860984632356080E-01   1.322710947563250E+00   3.376286017987780E+00
   Mo  -1.548449943151290E+00   4.127076761383720E+00   2.566193482593450E+00
   Mo   3.523699400222240E+00   1.439516691067640E+00   2.470231396453420E+00
   Mo   1.878896003649580E+00   4.447410280297050E+00   3.381474831694380E+00
   Mo   1.891528032865630E-01  -3.462244696987850E-01   8.501099596632621E+00
   Mo  -1.767529076030190E+00   2.465422345438810E+00   8.471152277364901E+00
   Mo   3.581014606912730E+00  -4.224445412426140E-01   8.185817160852229E+00
   Mo   1.685099353558550E+00   2.518329889140380E+00   8.314178080215299E+00
    S   1.029064339464540E+00  -6.705166576788910E-01   4.111450706836170E+00
    S  -1.147915006115920E-01   3.381212871086540E+00   3.655136386488940E+00
    S   5.209371809440510E+00   5.515349341729010E-01   4.191944331470150E+00
    S   2.091481517234960E+00   2.222715877367870E+00   4.041421320020320E+00
    S  -1.196883376379820E+00   8.837577136746060E-01   9.441518094462710E+00
    S  -2.989088228950240E+00   3.602271477845990E+00   9.425808729824951E+00
    S   1.843236816114040E+00   8.376309053362559E-01   9.433496606735250E+00
    S   2.449168237879850E-01   3.672426571302570E+00   9.542568128588570E+00
    S   1.560894395836910E+00   6.492100688659810E-01   1.747623804513790E+00
    S   3.362021026812390E-01   5.322138372335460E+00   2.147681242173880E+00
    S   5.085692829808800E+00   2.215085120054940E+00   1.451633761440090E+00
    S   2.998398098646220E+00   3.755628072752670E+00   1.928423276417110E+00
    S  -4.874261031516850E-03   1.914102257285690E+00   7.281474370731980E+00
    S  -1.638820448778160E+00   4.518294527327980E+00   7.316804932056960E+00
    S   3.331120776037150E+00   1.612631411338510E+00   7.258435363236200E+00
    S   1.777177181080080E+00   4.633098884052260E+00   7.344308958441940E+00
