 &control

     calculation = 'scf',

     restart_mode='from_scratch',

     tprnfor=.true.

     prefix='MoS2',

     outdir='./tmp',

     max_seconds = 84500

     disk_io = 'none'

     pseudo_dir = '~/pseudo/',
     nstep= 30

 /

 &system

    ibrav = 0,

    nat =  24
    ntyp = 2

    ecutwfc = 45 , ecutrho = 360,

    occupations='smearing', smearing='mv', degauss=0.02

/

  &electrons

     diagonalization='david',

     mixing_mode  =  'local-TF',

     mixing_beta = 0.7

   /

   &ions

     ion_dynamics = 'bfgs'

  /

   &cell

     cell_dynamics = 'bfgs',

   /

 ATOMIC_SPECIES

 Mo  95.5     Mo.pw91-n-van.UPF

 S   32.065   S.pw91-van_ak.UPF

K_POINTS {automatic}
  3  3  2 0 0 0
  
CELL_PARAMETERS (angstrom)
   6.679802204   0.153261898   0.240109208
  -3.473872921   5.666515259  -0.186998963
  -0.696724727  -2.321419717  13.728290937

ATOMIC_POSITIONS (angstrom)
Mo       0.233722803   1.425694947   4.296850064
Mo      -1.105833599   4.181230132   2.472793226
Mo       3.300797323   1.812810990   2.918876545
Mo       1.943527476   3.704983736   6.010640049
Mo       0.230908862  -0.766195516   9.977531207
Mo      -1.973805536   1.623147171   9.909590836
Mo       3.291578707  -0.641359689  10.115082471
Mo       1.691540170   1.620758608   9.959365767
S        2.156458203   0.087431171   4.412103462
S       -0.113609406   2.790731762   6.157397308
S        5.314798335   0.212706553   5.780386776
S        3.835037327   2.826142852   5.077018002
S       -1.688279104  -0.168855690  11.496919964
S       -3.513255427   2.759233130  11.273925666
S        1.669947918  -0.007981763  11.760683467
S       -0.138427920   2.817076139  11.183211039
S        3.199192798   0.079181869   1.218362081
S        1.211486702   3.402261365   3.383766372
S        5.729214545   1.890293516   2.400483903
S        3.600780550   3.813227928   1.600543513
S       -0.054745119   0.965898281   8.414535028
S       -1.739827096   3.732707397   8.437208168
S        3.329310707   1.006912103   8.342019558
S        1.719255858   3.820066041   8.533754254
