 &control

     calculation = 'scf',

     restart_mode='from_scratch',

     tprnfor=.true.

     prefix='MoS2',

     outdir='./tmp',

     max_seconds = 84500

     disk_io = 'none'

     pseudo_dir = '~/pseudo/',

 /

 &system

    ibrav = 0,

    nat =  24
    ntyp = 2

    ecutwfc = 45 , ecutrho = 360,

    occupations='smearing', smearing='mv', degauss=0.02

/

  &electrons

     diagonalization='david',

     mixing_mode  =  'local-TF',

     mixing_beta = 0.7

   /

   &ions

     ion_dynamics = 'bfgs'

  /

   &cell

     cell_dynamics = 'bfgs',

   /

 ATOMIC_SPECIES

 Mo  95.5     Mo.pw91-n-van.UPF

 S   32.065   S.pw91-van_ak.UPF

K_POINTS {automatic}
  3  3  1 0 0 0
  
CELL_PARAMETERS (angstrom)
   6.348008992544399E+00   0.000000000000000E+00   0.000000000000000E+00
  -3.146428867497277E+00   5.547758008668225E+00   0.000000000000000E+00
   5.261534990463865E-03  -7.278470421152464E-01   2.452163708376311E+01
  
ATOMIC_POSITIONS (angstrom)
   Mo   1.765679973521590E+00   8.343146564708640E-01   3.837463634090740E+00
   Mo   1.521717231037080E-01   3.683671700161980E+00   3.357743142258340E+00
   Mo   4.926024770467690E+00   8.917161195782390E-01   3.471899040209510E+00
   Mo   3.365381862164080E+00   3.502505465123760E+00   4.319069539239660E+00
   Mo  -1.315559686464640E-01   1.205554890170080E+00   2.106753868558830E+01
   Mo  -1.674892067011680E+00   4.010842122615030E+00   2.083750267312070E+01
   Mo   3.099706497797900E+00   1.282001783036350E+00   2.061610502479770E+01
   Mo   1.526938087306760E+00   4.054328274205730E+00   2.056939632582790E+01
    S   8.082675551982660E-02   1.264246100101230E+00   4.816513361609740E+00
    S  -1.244451603768490E+00   4.240014327456680E+00   4.995758707234470E+00
    S   3.399103451622260E+00   1.483164059905300E+00   5.023915993344050E+00
    S   1.580761167183440E+00   4.144117007423310E+00   4.889952036969190E+00
    S   1.258432863682090E+00   1.700743077534600E-01   2.204115475010330E+01
    S  -3.379815860928390E-01   3.010989994494550E+00   2.200726481444870E+01
    S   4.451887723941430E+00   2.116871130348580E-01   2.191803576500810E+01
    S   2.865618169655590E+00   2.979564345028930E+00   2.184498080725290E+01
    S   1.560324096747260E-01   1.851607494188650E+00   2.432034813631730E+00
    S  -1.481413430585750E+00   4.768963830311190E+00   2.633492903980110E+00
    S   3.314946791596610E+00   2.090266638025760E+00   2.729913826880580E+00
    S   1.613022610542880E+00   4.721500268575880E+00   2.448618924216180E+00
    S   1.550464567597360E+00   4.389838511863450E-01   1.968051586291800E+01
    S  -2.388325912807880E-02   3.244452178982700E+00   1.963295641958220E+01
    S   4.828598594075350E+00   4.082217781876940E-01   1.958642832133510E+01
    S   3.238591577524430E+00   3.160852147659890E+00   1.951121989802960E+01
