 &control

     calculation = 'relax',

     restart_mode='from_scratch',

     tprnfor=.true.

     prefix='MoS2',

     outdir='./tmp',

     max_seconds = 84500

     disk_io = 'none'

     pseudo_dir = '~/pseudo/',

     nstep= 4

 /

 &system

    ibrav = 0,

    nat =  36
    ntyp = 2

    ecutwfc = 45 , ecutrho = 360,

    occupations='smearing', smearing='mv', degauss=0.02

/

  &electrons

     diagonalization='david',

     mixing_mode  =  'local-TF',

     mixing_beta = 0.7

   /

   &ions

     ion_dynamics = 'bfgs'

  /

   &cell

     cell_dynamics = 'bfgs',

   /

 ATOMIC_SPECIES

 Mo  95.5     Mo.pw91-n-van.UPF

 S   32.065   S.pw91-van_ak.UPF

K_POINTS {automatic}
  3  3  1 0 0 0
  
CELL_PARAMETERS (angstrom)
   6.440624197661320E+00   0.000000000000000E+00   0.000000000000000E+00
  -3.224882789922910E+00   5.604037520713360E+00   0.000000000000000E+00
  -2.597363516720190E-01  -3.801538379646970E-01   2.609543565195090E+01
  
ATOMIC_POSITIONS (angstrom)
   Mo  -1.495891062078790E+00   4.121181901568350E+00   1.603851654157260E+01
   Mo   1.214527413796400E-01   1.308983753989850E+00   1.608475542089790E+01
   Mo   3.350910016709920E+00   1.300464302692420E+00   1.608152752885860E+01
   Mo   1.724086028608800E+00   4.025329980426480E+00   1.606222622826440E+01
   Mo   3.751810342827580E+00   3.205776217211200E-01   8.287634256260850E+00
   Mo   2.180916603091390E+00   3.144842087108410E+00   8.251452117586020E+00
   Mo  -1.074045311515900E+00   3.227938337076870E+00   8.322025771925940E+00
   Mo   6.102516053086940E-01   3.934358983421310E-01   8.259251386100321E+00
   Mo   3.934627884301030E+00   8.240474692655210E-01   1.694931222901060E+00
   Mo   2.241584779760690E+00   3.560190492606090E+00   1.767864267259350E+00
   Mo  -9.709598914735100E-01   3.507578198031260E+00   1.911470795009830E+00
   Mo   6.094634465750660E-01   8.225487167476790E-01   1.665240981291270E+00
    S   2.284223457549810E+00   1.723837756826610E+00   1.483068936605750E-01
    S   5.601589141076790E-01   4.439260311382820E+00   2.521086437645380E-01
    S  -2.529844073351320E+00   4.434691926712280E+00   2.464318065452860E-01
    S  -9.587574234183710E-01   1.819382454051010E+00   1.136728721264850E-01
    S   1.175120700997080E-01   5.019227221356460E+00   1.762462726441900E+01
    S   1.726639074128200E+00   2.203878081453480E+00   1.767841717137130E+01
    S  -1.502467909283450E+00   2.296248300308760E+00   1.763589094541930E+01
    S  -3.142314039538330E+00   5.021690025896690E+00   1.762013534140010E+01
    S   1.569766750644500E-01   5.040419227999780E+00   1.449348728383970E+01
    S   1.747342720875310E+00   2.167549358546660E+00   1.447703277396900E+01
    S  -1.476590600648030E+00   2.247036830249910E+00   1.449197238217580E+01
    S  -3.138147197203230E+00   5.046178835150320E+00   1.449501564992600E+01
    S   6.066303173572239E-01   4.058863566890880E+00   9.872185211507830E+00
    S   2.195503379405990E+00   1.298500027885930E+00   9.869714706966800E+00
    S   5.394404308581410E+00   1.287293949749590E+00   9.807173024626650E+00
    S   3.738510607512370E+00   4.148987482694660E+00   9.862264448815100E+00
    S   5.350278913663230E-01   4.077196023868700E+00   6.699886681315990E+00
    S   2.208496836875530E+00   1.311899621239480E+00   6.651126933846300E+00
    S   5.351585628415670E+00   1.374092273208290E+00   6.759895745595940E+00
    S   3.773216368519590E+00   4.147379440128890E+00   6.695725268086090E+00
    S   2.263902602483970E+00   1.665491707637510E+00   3.285290730437090E+00
    S   6.723192364923229E-01   4.602648816293010E+00   3.330156268800430E+00
    S  -2.637935752701500E+00   4.621908114139120E+00   3.316921100126700E+00
    S  -9.309390588840020E-01   1.609383284442800E+00   3.422926049661350E+00
