 &control

     calculation = 'scf',

     restart_mode='from_scratch',

     tprnfor=.true.

     prefix='MoS2',

     outdir='./tmp',

     max_seconds = 84500

     disk_io = 'none'

     pseudo_dir = '~/pseudo/',

 /

 &system

    ibrav = 0,

    nat =  24
    ntyp = 2

    ecutwfc = 45 , ecutrho = 360,

    occupations='smearing', smearing='mv', degauss=0.02

/

  &electrons

     diagonalization='david',

     mixing_mode  =  'local-TF',

     mixing_beta = 0.7

   /

   &ions

     ion_dynamics = 'bfgs'

  /

   &cell

     cell_dynamics = 'bfgs',

   /

 ATOMIC_SPECIES

 Mo  95.5     Mo.pw91-n-van.UPF

 S   32.065   S.pw91-van_ak.UPF

K_POINTS {automatic}
  3  3  1 0 0 0
  
CELL_PARAMETERS (angstrom)
   6.380632000000000E+00   0.000000000000000E+00   0.000000000000000E+00
  -3.190316000000000E+00   5.525788000000000E+00   0.000000000000000E+00
   0.000000000000000E+00   0.000000000000000E+00   1.487900400000000E+01
  
ATOMIC_POSITIONS (angstrom)
   Mo   1.776431152392860E-02   1.898052194012770E+00   3.638913505961520E+00
   Mo  -1.622532183438150E+00   4.609194508467380E+00   3.623669564283520E+00
   Mo   3.275527199178920E+00   1.858695173969440E+00   3.769326368376890E+00
   Mo   1.595285991236040E+00   4.602201042705600E+00   3.619785496108370E+00
   Mo   1.560286835121250E+00   1.013504804036850E+00   1.117408685080440E+01
   Mo   5.252858430256900E-02   3.719901988094500E+00   1.108217039494700E+01
   Mo   4.786290498486200E+00   9.198079829417140E-01   1.105926299977490E+01
   Mo   3.197595472392120E+00   3.635347596891870E+00   1.124639540050280E+01
    S   1.673462306470940E+00   9.324016226855920E-01   5.345773410262590E+00
    S   1.256572883676050E-02   3.683907444740400E+00   5.383842927269320E+00
    S   4.823278277334320E+00   8.285327030812650E-01   5.279395177737590E+00
    S   3.179768677236110E+00   3.714146490745220E+00   5.189918355265190E+00
    S  -3.213532753516530E-03   1.866523923117590E+00   1.282101272429990E+01
    S  -1.622270556725470E+00   4.629787589629660E+00   1.281709879768760E+01
    S   3.285918160217530E+00   1.824298422810820E+00   1.274756897945530E+01
    S   1.637604393010900E+00   4.695317695694090E+00   1.272715487638200E+01
    S   1.679258860750860E+00   9.191954668216600E-01   2.100790883502980E+00
    S  -1.081970976691310E-02   3.772026372690670E+00   2.200792579942640E+00
    S   4.788019143750420E+00   9.228145572467810E-01   2.054916121263370E+00
    S   3.133569152869960E+00   3.621100925947700E+00   2.208169502572050E+00
    S   7.736469172687410E-03   1.742712358664760E+00   9.604163098400409E+00
    S  -1.532178064314560E+00   4.639817010891040E+00   9.663714388463481E+00
    S   3.155928478206990E+00   1.884258932790710E+00   9.678189221625200E+00
    S   1.589414284393340E+00   4.680716745575270E+00   9.529504484342629E+00
