 &control

     calculation = 'scf',

     restart_mode='from_scratch',

     tprnfor=.true.

     prefix='MoS2',

     outdir='./tmp',

     max_seconds = 84500

     disk_io = 'none'

     pseudo_dir = '~/pseudo/',

 /

 &system

    ibrav = 0,

    nat =  24
    ntyp = 2

    ecutwfc = 45 , ecutrho = 360,

    occupations='smearing', smearing='mv', degauss=0.02

/

  &electrons

     diagonalization='david',

     mixing_mode  =  'local-TF',

     mixing_beta = 0.7

   /

   &ions

     ion_dynamics = 'bfgs'

  /

   &cell

     cell_dynamics = 'bfgs',

   /

 ATOMIC_SPECIES

 Mo  95.5     Mo.pw91-n-van.UPF

 S   32.065   S.pw91-van_ak.UPF

K_POINTS {automatic}
  3  6  1 0 0 0
  
CELL_PARAMETERS (angstrom)
   7.070140013684052E+00   0.000000000000000E+00   0.000000000000000E+00
  -1.822673627313226E+00   2.965505560631699E+00   0.000000000000000E+00
  -2.812147266517788E-01   8.106913213464622E+00   2.168251809503960E+01
  
ATOMIC_POSITIONS (angstrom)
   Mo   9.482975581465850E-01   2.260242922183190E+00   2.731455240904820E+00
   Mo  -5.767835029330530E-01   6.303183576250960E+00   1.337849311604860E+01
   Mo   4.284175361311090E+00   2.466505529393510E+00   2.936625110225210E+00
   Mo   3.000054656948400E+00   6.418607651589640E+00   1.426593167337550E+01
   Mo   1.411528839431890E+00   4.693529432555430E+00   7.892568696020570E+00
   Mo   1.312637941570010E+00   8.840132827594900E+00   1.906155305360130E+01
   Mo   4.969294344017190E+00   4.692604589374340E+00   7.751973640608730E+00
   Mo   4.782549682138450E+00   8.859466549142629E+00   1.876182470906400E+01
    S   2.243050317147740E+00   3.530447364449200E+00   3.894380118965450E+00
    S   1.284938572473760E+00   7.518053188190560E+00   1.494950303442390E+01
    S   5.801253202724290E+00   3.612861207515310E+00   3.881179534806800E+00
    S   4.721137048299760E+00   7.503032836843470E+00   1.477407197596300E+01
    S  -5.611524160102610E-01   5.417514160788520E+00   8.837865933452640E+00
    S  -3.756260121637900E-01   9.451264258759251E+00   1.994272318919710E+01
    S   3.018081047834080E+00   5.385238549550710E+00   8.826131449851230E+00
    S   3.181758133736460E+00   9.353281140638749E+00   1.993271018166810E+01
    S   2.529733092715390E+00   1.621683213608600E+00   1.706064018195290E+00
    S   1.241385178287640E+00   5.541108957676790E+00   1.272611243221930E+01
    S   5.823423104883630E+00   1.639947501639400E+00   1.905165131828790E+00
    S   4.759073302383380E+00   5.549153728845370E+00   1.268730336088070E+01
    S  -5.017652154502870E-01   3.471772954496810E+00   6.830129647100350E+00
    S  -3.422381775604670E-01   7.605508763274870E+00   1.779636878556020E+01
    S   3.070554673667100E+00   3.427486535898870E+00   6.852793019011980E+00
    S   3.302910941359400E+00   7.461799867159800E+00   1.781693722782210E+01
