 &control

     calculation = 'relax',

     restart_mode='from_scratch',

     tprnfor=.true.

     prefix='MoS2',

     outdir='./tmp',

     max_seconds = 84500

     disk_io = 'none'

     pseudo_dir = '~/pseudo/',

     nstep= 4

 /

 &system

    ibrav = 0,

    nat =  24
    ntyp = 2

    ecutwfc = 45 , ecutrho = 360,

    occupations='smearing', smearing='mv', degauss=0.02

/

  &electrons

     diagonalization='david',

     mixing_mode  =  'local-TF',

     mixing_beta = 0.7

   /

   &ions

     ion_dynamics = 'bfgs'

  /

   &cell

     cell_dynamics = 'bfgs',

   /

 ATOMIC_SPECIES

 Mo  95.5     Mo.pw91-n-van.UPF

 S   32.065   S.pw91-van_ak.UPF

K_POINTS {automatic}
  5  3  1 0 0 0
  
CELL_PARAMETERS (angstrom)
   3.228659508054610E+00   0.000000000000000E+00   0.000000000000000E+00
   5.916895056307755E-03   5.592438132324980E+00   0.000000000000000E+00
  -4.876121701168530E+00  -3.007171041081480E+00   2.760231997568160E+01
  
ATOMIC_POSITIONS (angstrom)
   Mo  -1.299597670272960E+00  -1.768565077725650E+00   2.414539310060850E+01
   Mo   5.785690677768520E-01   9.582067549983290E-01   1.034968841517650E+01
   Mo  -2.910969211434980E+00   1.027652451608540E+00   2.414539211207810E+01
   Mo  -1.032804067925510E+00   3.754427361220600E+00   1.034968886203790E+01
   Mo  -2.824432192541710E+00   2.677384542267910E+00   1.730411028421270E+01
   Mo   2.570045364039860E-01   3.256167776806990E+00   3.388905252519850E+00
   Mo  -1.213060134131320E+00  -1.188318439892560E-01   1.730410938592600E+01
   Mo   1.868375642317060E+00   4.599481341528000E-01   3.388905479256100E+00
    S  -2.911839109905840E+00  -8.400526635362190E-01   2.256516485899690E+01
    S  -1.036811892848500E+00   1.894024030705840E+00   8.770110986359031E+00
    S  -1.294551127381490E+00   1.956168454026010E+00   2.256517038063320E+01
    S   5.745572444155080E-01  -9.021957542539600E-01   8.770109647963150E+00
    S  -1.208202059466970E+00   1.745371903505330E+00   1.572426519130630E+01
    S   1.870864761889740E+00   2.324108586162670E+00   1.808790387398210E+00
    S  -2.825489362857750E+00  -1.050848711246410E+00   1.572426682767830E+01
    S   2.535762828753270E-01  -4.721100746371250E-01   1.808788608534610E+00
    S  -2.915247562027610E+00  -8.335388973336300E-01   2.572582665762800E+01
    S  -1.035881771641020E+00   1.887210671087330E+00   1.192925274310730E+01
    S  -1.297959705431270E+00   1.962680151856360E+00   2.572582014295940E+01
    S   5.754874100187320E-01  -9.090082004721700E-01   1.192925412397250E+01
    S  -1.212620601668820E+00   1.747276515848060E+00   1.888466771278780E+01
    S   1.872795611547300E+00   2.321957608412940E+00   4.968122573912620E+00
    S  -2.829907955775190E+00  -1.048942158594940E+00   1.888466351208570E+01
    S   2.555072134573860E-01  -4.742613592976820E-01   4.968122949294180E+00
