 &control

     calculation = 'relax',

     restart_mode='from_scratch',

     tprnfor=.true.

     prefix='MoS2',

     outdir='./tmp',

     max_seconds = 84500

     disk_io = 'none'

     pseudo_dir = '~/pseudo/',

     nstep= 4

 /

 &system

    ibrav = 0,

    nat =  24
    ntyp = 2

    ecutwfc = 45 , ecutrho = 360,

    occupations='smearing', smearing='mv', degauss=0.02

/

  &electrons

     diagonalization='david',

     mixing_mode  =  'local-TF',

     mixing_beta = 0.7

   /

   &ions

     ion_dynamics = 'bfgs'

  /

   &cell

     cell_dynamics = 'bfgs',

   /

 ATOMIC_SPECIES

 Mo  95.5     Mo.pw91-n-van.UPF

 S   32.065   S.pw91-van_ak.UPF

K_POINTS {automatic}
  5  3  1 0 0 0
  
CELL_PARAMETERS (angstrom)
   3.214348383125170E+00   0.000000000000000E+00   0.000000000000000E+00
   2.156959857739766E-02   5.603528074018690E+00   0.000000000000000E+00
   1.972114382269140E-01   2.007386334284190E-01   2.999305415575120E+01
  
ATOMIC_POSITIONS (angstrom)
   Mo   2.140821307587670E+00   4.869268755370620E+00   2.619476857372960E+01
   Mo   8.092681244638450E-01   2.236547015207230E+00   1.152505190448740E+01
   Mo   5.671391644460601E-01   2.053676399126360E+00   2.624435639481700E+01
   Mo   2.427305301885310E+00   5.025271348031720E+00   1.155174347867290E+01
   Mo   6.181914876027750E-01   1.836655746209500E-01   1.848518120995400E+01
   Mo   8.321252582542760E-02   4.398864110019660E+00   3.739873263071920E+00
   Mo   2.219903681669440E+00   2.968237487614030E+00   1.851342448286430E+01
   Mo   1.667017408050690E+00   1.576582574368380E+00   3.681404143321960E+00
    S   5.327583808032500E-01   3.906339349189140E+00   2.464440662074300E+01
    S   2.407739397779230E+00   1.278644800909750E+00   9.970296615380390E+00
    S   2.162315617070730E+00   1.149748146316290E+00   2.465114812913130E+01
    S   8.130437542572840E-01   4.106591985952920E+00   9.967539700207610E+00
    S   2.225386104986660E+00   1.122260790191280E+00   1.690802437225630E+01
    S   1.692400240609760E+00   5.300940588683930E+00   2.140558576169030E+00
    S   6.179404994098220E-01   3.902574125110690E+00   1.693111549768540E+01
    S   6.428560725050300E-02   2.552094229028010E+00   2.135626922143670E+00
    S   5.349677309329260E-01   3.949149169823960E+00   2.777807855115110E+01
    S   2.413080085669390E+00   1.302278569061280E+00   1.310648502943660E+01
    S   2.165951840520000E+00   1.106070783582180E+00   2.780662598091250E+01
    S   8.139017949942110E-01   4.083982329556440E+00   1.312988536812330E+01
    S   2.233792236224950E+00   1.098141579055240E+00   2.007319694487550E+01
    S   1.698621617801760E+00   5.350033251142730E+00   5.300429028468650E+00
    S   6.243193465278950E-01   3.928897210787350E+00   2.006837981082960E+01
    S   7.270269457192470E-02   2.499312599562560E+00   5.261664350652040E+00
