 &control

     calculation = 'relax',

     restart_mode='from_scratch',

     tprnfor=.true.

     prefix='MoS2',

     outdir='./tmp',

     max_seconds = 84500

     disk_io = 'none'

     pseudo_dir = '~/pseudo/',

     nstep= 4

 /

 &system

    ibrav = 0,

    nat =  36
    ntyp = 2

    ecutwfc = 45 , ecutrho = 360,

    occupations='smearing', smearing='mv', degauss=0.02

/

  &electrons

     diagonalization='david',

     mixing_mode  =  'local-TF',

     mixing_beta = 0.7

   /

   &ions

     ion_dynamics = 'bfgs'

  /

   &cell

     cell_dynamics = 'bfgs',

   /

 ATOMIC_SPECIES

 Mo  95.5     Mo.pw91-n-van.UPF

 S   32.065   S.pw91-van_ak.UPF

K_POINTS {automatic}
  3  3  1 0 0 0
  
CELL_PARAMETERS (angstrom)
   6.447443355081020E+00   0.000000000000000E+00   0.000000000000000E+00
  -3.251170577364150E+00   5.604289168423710E+00   0.000000000000000E+00
   1.819445171325410E+00  -4.391680168653280E+00   2.460282989518540E+01
  
ATOMIC_POSITIONS (angstrom)
   Mo  -2.358058301256500E-01   1.588141131825660E+00   9.629566971149290E+00
   Mo   2.983831273728350E+00   1.608918988507540E+00   9.652048529008891E+00
   Mo   4.589973304169630E+00  -1.207429276595950E+00   9.694372326436479E+00
   Mo   1.376847267275930E+00  -1.198522609329760E+00   9.659120569205340E+00
   Mo   5.105058004398100E+00  -1.211717829177810E+00   1.633438631592900E+01
   Mo   1.872941333249340E+00  -1.216119638745950E+00   1.633894793168590E+01
   Mo   2.454414147755760E-01   1.577095449162440E+00   1.626252314333020E+01
   Mo   3.480623182315390E+00   1.587683488207840E+00   1.627544361110390E+01
   Mo   3.867306712611160E-01  -7.533741637551060E-01   2.326871695077060E+01
   Mo   3.606885662284660E+00  -7.541413092213910E-01   2.321774863499680E+01
   Mo   5.239568579528200E+00  -3.559336008291270E+00   2.322926966052070E+01
   Mo   2.009650745497550E+00  -3.546167978809440E+00   2.321485321765720E+01
    S   1.955500806821300E-01   2.685721751707580E+00   1.956955917044700E-01
    S   3.382071200853310E+00   2.682221781741930E+00   2.034686625262340E-01
    S   1.788205978039470E+00   5.491798390150620E+00   1.872735632632270E-01
    S  -1.455772353634850E+00   5.518524080981850E+00   1.992102703739440E-01
    S  -2.453294383424230E-01   3.478485069853310E+00   8.100233841470541E+00
    S   2.954116180767840E+00   3.486278392694480E+00   8.097010828508379E+00
    S   4.584327802991780E+00   6.335605776728450E-01   8.086614896677361E+00
    S   1.396442022482270E+00   6.607787181092010E-01   8.077462274945701E+00
    S   2.961964890000360E+00  -2.184631189671240E+00   1.124157336032640E+01
    S   6.214178353483370E+00  -2.152437927510280E+00   1.125288644447110E+01
    S   4.601570544913740E+00   6.833347264329200E-01   1.124617593921300E+01
    S   1.370253296502750E+00   6.624805363983830E-01   1.122774388671930E+01
    S   3.497702921755300E+00  -2.123067255772950E+00   1.474524975171830E+01
    S   6.723523603047960E+00  -2.121595886844120E+00   1.473911768013050E+01
    S   5.090468603899760E+00   6.102406907419160E-01   1.470613923934910E+01
    S   1.884538010076220E+00   6.126275980746380E-01   1.471859609928000E+01
    S   3.480051225660890E+00  -2.191886439525800E+00   1.788066502525680E+01
    S   6.699205392511650E+00  -2.187908383668520E+00   1.790320182142290E+01
    S   5.074717898975540E+00   6.766414967983280E-01   1.787810038499480E+01
    S   1.843353387998170E+00   6.816812394619230E-01   1.786749531016750E+01
    S   1.975370114163770E+00  -1.672251616536280E+00   2.164884279105770E+01
    S   5.239316685807080E+00  -1.681518983017150E+00   2.165586049121090E+01
    S   3.589869665798330E+00   1.115743961817500E+00   2.163877697374790E+01
    S   3.737683547779750E-01   1.095638568450870E+00   2.165222628917190E+01
