 &control

     calculation = 'scf',

     restart_mode='from_scratch',

     tprnfor=.true.

     prefix='MoS2',

     outdir='./tmp',

     max_seconds = 84500

     disk_io = 'none'

     pseudo_dir = '~/pseudo/',

 /

 &system

    ibrav = 0,

    nat =  36
    ntyp = 2

    ecutwfc = 45 , ecutrho = 360,

    occupations='smearing', smearing='mv', degauss=0.02

/

  &electrons

     diagonalization='david',

     mixing_mode  =  'local-TF',

     mixing_beta = 0.7

   /

   &ions

     ion_dynamics = 'bfgs'

  /

   &cell

     cell_dynamics = 'bfgs',

   /

 ATOMIC_SPECIES

 Mo  95.5     Mo.pw91-n-van.UPF

 S   32.065   S.pw91-van_ak.UPF

K_POINTS {automatic}
  3  3  1 0 0 0
  
CELL_PARAMETERS (angstrom)
   6.591924889221833E+00   0.000000000000000E+00   0.000000000000000E+00
  -3.323274054443207E+00   5.853573311819891E+00   0.000000000000000E+00
  -2.439959570901278E+00  -9.921431080028321E-01   1.709557252764814E+01
  
ATOMIC_POSITIONS (angstrom)
   Mo   1.135316037835310E+00   1.177012992464860E+00   5.413773816973520E+00
   Mo  -4.380038236701420E-01   4.116553587838420E+00   5.540641546861310E+00
   Mo   4.452153552064440E+00   1.133390291083250E+00   5.659847228426820E+00
   Mo   2.736587237053580E+00   3.767399527224180E+00   6.171471503948590E+00
   Mo  -1.583305395055170E+00   3.795294224119510E-01   1.155197076663480E+01
   Mo  -3.218091170301010E+00   3.402931043525990E+00   1.124307953490820E+01
   Mo   1.710100164534560E+00   4.817230398172410E-01   1.160889415688280E+01
   Mo   6.158061616872260E-02   3.463346081554890E+00   1.099094570546390E+01
   Mo  -2.677669592386130E+00  -1.240789723482330E+00   1.674080994122180E+01
   Mo  -4.733302182015030E+00   1.865160641694940E+00   1.770917604613110E+01
   Mo   2.769665044049500E-01  -1.040176191294440E+00   1.767315094310980E+01
   Mo  -1.155103567584920E+00   1.727097390010730E+00   1.669698373008230E+01
    S  -6.878320729660800E-01   1.788070878486960E+00   8.366052917602740E-01
    S  -2.379424774026380E+00   4.948727543837880E+00   1.425411082702010E+00
    S   2.558331289814880E+00   1.942820611125870E+00   1.488324258001380E+00
    S   9.341216911086300E-01   4.642417564343680E+00   9.106206776231940E-01
    S  -5.016564023740090E-01   1.252017863311690E+00   4.380670426736270E+00
    S  -2.230851171486650E+00   3.544747315709670E+00   4.779432636817190E+00
    S   2.920033855719470E+00   3.572029572387570E-01   4.412719893700770E+00
    S   1.488294995012550E+00   3.397778861822040E+00   4.609600348577240E+00
    S  -7.722357844090760E-01  -9.300956497973289E-02   6.594547885095500E+00
    S  -2.505919185773060E+00   2.531107945535420E+00   7.069146758305580E+00
    S   2.516722135726230E+00  -2.409875408633250E-01   6.713296320399430E+00
    S   8.637438546837780E-01   2.740496748282980E+00   6.824203153471330E+00
    S   7.921145952844701E-02  -4.657407111396850E-01   1.039848593508110E+01
    S  -1.509121663245630E+00   2.306428825841680E+00   1.036140653664090E+01
    S   3.417129509602300E+00  -3.618179040968960E-01   1.035121300264820E+01
    S   1.814069559937510E+00   2.344660130552110E+00   1.036085569825340E+01
    S  -5.218890638723100E-03   1.690902085877760E+00   1.234775111974700E+01
    S  -1.561576939264970E+00   4.597523180998530E+00   1.217773608852690E+01
    S   3.365625375974140E+00   1.726063672749070E+00   1.238818673465920E+01
    S   1.650482643731180E+00   4.482316314723460E+00   1.220074403475410E+01
    S  -1.968439955603710E+00   2.333106769912080E-01   1.561664007697480E+01
    S  -4.026081879832010E+00   3.543982970658280E+00   1.629567369019140E+01
    S   8.437598590624790E-01   7.027235804674570E-01   1.631775395451150E+01
    S  -3.615070601024400E-01   3.224470985412890E+00   1.564427909594540E+01
