 &control

     calculation = 'scf',

     restart_mode='from_scratch',

     tprnfor=.true.

     prefix='MoS2',

     outdir='./tmp',

     max_seconds = 84500

     disk_io = 'none'

     nstep= 12

     pseudo_dir = '~/pseudo/',

 /

 &system

    ibrav = 0,

    nat =  33
    ntyp = 2

    ecutwfc = 45 , ecutrho = 360,

    occupations='smearing', smearing='mv', degauss=0.02

/

  &electrons

     diagonalization='david',

     mixing_mode  =  'local-TF',

     mixing_beta = 0.7

   /

   &ions

     ion_dynamics = 'bfgs'

  /

   &cell

     cell_dynamics = 'bfgs',

   /

 ATOMIC_SPECIES

 Mo  95.5     Mo.pw91-n-van.UPF

 S   32.065   S.pw91-van_ak.UPF

K_POINTS {gamma}
  
CELL_PARAMETERS (angstrom)
   2.222082969400000E+01   0.000000000000000E+00   0.000000000000000E+00
   0.000000000000000E+00   2.325827189100000E+01   0.000000000000000E+00
   0.000000000000000E+00   0.000000000000000E+00   2.020982441600000E+01
  
ATOMIC_POSITIONS (angstrom)
   Mo   1.172940973600000E+01   1.037443645300000E+01   1.076961124800000E+01
   Mo   9.932625516000000E+00   1.172927034900000E+01   1.289354698700000E+01
   Mo   1.058381638900000E+01   1.354680576800000E+01   7.296232691000000E+00
   Mo   1.237381047400000E+01   1.307733507200000E+01   1.151230321500000E+01
   Mo   9.008349180000000E+00   1.552870362000000E+01   8.950016717000000E+00
   Mo   1.097769872800000E+01   7.923189120000000E+00   9.337640453000001E+00
   Mo   1.404066124200000E+01   1.531073460400000E+01   1.199893327600000E+01
   Mo   1.443190314100000E+01   1.269332120300000E+01   1.336746661300000E+01
   Mo   7.666847981000000E+00   1.281717700400000E+01   1.090142313400000E+01
   Mo   1.018728882600000E+01   1.054053695300000E+01   8.379804618000000E+00
   Mo   1.154076703200000E+01   1.515306164300000E+01   9.820138764999999E+00
    S   7.010723211000000E+00   1.496693499700000E+01   1.005267874000000E+01
    S   1.214335880300000E+01   1.254653421500000E+01   9.080325941000000E+00
    S   1.359949033200000E+01   1.079778955600000E+01   1.202847235500000E+01
    S   8.881248699000000E+00   8.573906262000000E+00   8.542103721000000E+00
    S   1.469255810200000E+01   1.330132302000000E+01   1.105582502300000E+01
    S   1.172495928100000E+01   1.532695598600000E+01   1.216379514900000E+01
    S   8.977238925000000E+00   1.522523079600000E+01   6.711039372000000E+00
    S   9.766299056999999E+00   1.377540724900000E+01   1.028386870400000E+01
    S   7.853169836000000E+00   1.285055953400000E+01   1.317931639100000E+01
    S   9.518436493999999E+00   1.162671819700000E+01   6.433964770000000E+00
    S   1.187439139300000E+01   1.265072829600000E+01   1.388932686500000E+01
    S   1.221410237300000E+01   1.410827609300000E+01   6.000000000000000E+00
    S   9.355635853000001E+00   1.091097294100000E+01   1.059425555100000E+01
    S   9.713985029000000E+00   9.814780173999999E+00   1.386744524500000E+01
    S   1.048445129500000E+01   1.725827189100000E+01   9.615145426000000E+00
    S   1.425702129400000E+01   1.688564804500000E+01   1.046252460800000E+01
    S   6.000000000000000E+00   1.155512604900000E+01   1.033294147900000E+01
    S   1.190956142200000E+01   6.000000000000000E+00   8.943864126999999E+00
    S   1.238631914100000E+01   9.592312972000000E+00   8.589827911000000E+00
    S   1.450198044000000E+01   1.497488793000000E+01   1.420982441600000E+01
    S   1.119488156200000E+01   8.224378433000000E+00   1.160198144600000E+01
    S   1.622082969400000E+01   1.167075119300000E+01   1.405675397400000E+01
