 &control

     calculation = 'scf',

     restart_mode='from_scratch',

     tprnfor=.true.

     prefix='MoS2',

     outdir='./tmp',

     max_seconds = 84500

     disk_io = 'none'

     nstep= 12

     pseudo_dir = '~/pseudo/',

 /

 &system

    ibrav = 0,

    nat =  21
    ntyp = 2

    ecutwfc = 45 , ecutrho = 360,

    occupations='smearing', smearing='mv', degauss=0.02

/

  &electrons

     diagonalization='david',

     mixing_mode  =  'local-TF',

     mixing_beta = 0.7

   /

   &ions

     ion_dynamics = 'bfgs'

  /

   &cell

     cell_dynamics = 'bfgs',

   /

 ATOMIC_SPECIES

 Mo  95.5     Mo.pw91-n-van.UPF

 S   32.065   S.pw91-van_ak.UPF

K_POINTS {automatic}
  3  3  2 0 0 0
  
CELL_PARAMETERS (angstrom)
   6.498772664951910E+00   0.000000000000000E+00   0.000000000000000E+00
  -1.371695785285040E+00   6.586572233667280E+00   0.000000000000000E+00
  -1.364638072300030E+00  -1.557691344759850E+00   1.080126309313870E+01
  
ATOMIC_POSITIONS (angstrom)
   Mo   1.749322131911260E+00   3.359926236671390E+00   1.947357387957290E+00
   Mo   2.223176013605770E+00   5.256516861932380E+00   4.218090345238070E+00
   Mo   1.820046617467710E+00   2.996532998350460E-01   8.423248229923111E+00
   Mo  -5.304710644802491E-01   6.280866390303140E-01   1.015856534892400E+01
   Mo   3.092431418858030E+00   1.140787256010210E+00   4.737862270998030E-01
   Mo   2.963589500742290E+00   2.386307468086240E+00   4.456794505974730E+00
   Mo   4.100735762865630E+00   6.196283018813720E-01   6.443370623326730E+00
    S   2.535989104509550E+00   2.240936773016990E+00   6.947362428325150E+00
    S   4.238749060975800E+00   4.322831885976450E+00   5.116016112638760E+00
    S  -4.742813258532630E-01   1.111192713061340E+00   7.757759795656400E+00
    S   5.025684748017660E+00   8.086012263056350E-01   4.304226220712470E+00
    S   2.364013372409320E+00   5.727512485914350E+00   1.837208337595440E+00
    S   4.005374253070010E+00   2.558803076488320E+00   2.221120036350860E+00
    S   7.759693160421580E-01   3.332734472372820E+00   4.099162988280800E+00
    S  -8.130769114362451E-01   5.012343137129550E+00   9.430042521205481E+00
    S   1.447850436949280E+00   5.285464165087010E+00   6.752419447585200E+00
    S   1.722741947980200E+00   2.220089744352310E-01   4.365547385119880E+00
    S   1.585460623756220E+00   2.000523004651970E+00   1.025522185481660E+01
    S  -1.768273345344110E-01   3.984222902993530E+00   6.086782161342730E-01
    S   3.735566568944590E+00  -5.086752301673130E-01   9.869067734025190E+00
    S   8.883634446032780E-01   1.013894267394040E+00   1.617454403263200E+00
