 &control

     calculation = 'scf',

     restart_mode='from_scratch',

     tprnfor=.true.

     prefix='MoS2',

     outdir='./tmp',

     max_seconds = 84500

     disk_io = 'none'

     nstep= 12

     pseudo_dir = '~/pseudo/',

 /

 &system

    ibrav = 0,

    nat =  42
    ntyp = 2

    ecutwfc = 45 , ecutrho = 360,

    occupations='smearing', smearing='mv', degauss=0.02

/

  &electrons

     diagonalization='david',

     mixing_mode  =  'local-TF',

     mixing_beta = 0.7

   /

   &ions

     ion_dynamics = 'bfgs'

  /

   &cell

     cell_dynamics = 'bfgs',

   /

 ATOMIC_SPECIES

 Mo  95.5     Mo.pw91-n-van.UPF

 S   32.065   S.pw91-van_ak.UPF

K_POINTS {automatic}
  2  2  2 0 0 0
  
CELL_PARAMETERS (angstrom)
   9.642778495699510E+00   0.000000000000000E+00   0.000000000000000E+00
  -2.338046808677830E-01   9.990064567775431E+00   0.000000000000000E+00
  -3.055676266943170E-01  -7.195529787754790E-01   1.007287044185250E+01
  
ATOMIC_POSITIONS (angstrom)
   Mo   7.946350443109910E+00   3.099755099418440E+00   6.157650573706660E+00
   Mo   5.856320837281000E+00   3.148797700428750E+00   8.175240896785120E+00
   Mo   8.046488043945111E+00   9.533104274115510E-01   8.044134014783220E+00
   Mo   5.773860542365100E+00   9.045829898349670E-01   6.306812511795610E+00
   Mo   3.153014176193440E+00   8.146421107487990E+00   6.534617805652000E+00
   Mo   1.030829460096320E+00   8.150876426129051E+00   8.655605131191360E+00
   Mo   3.131534848950380E+00   6.108211604246250E+00   8.599546976159550E+00
   Mo   1.129092053946220E+00   6.087515938774880E+00   6.681531417063200E+00
   Mo   5.357023229121620E+00   8.549053602935119E+00   4.320678770143570E+00
   Mo   7.990822204989430E+00   5.385342792878850E+00   3.960533924131780E+00
   Mo   5.902621517526540E+00   6.171022101093480E+00   1.879540700384980E+00
   Mo   3.649054506087930E+00   4.799016414723420E+00   6.783162521062990E-01
   Mo   6.708471009664660E-01   3.708333558471630E+00   4.068113735623100E+00
   Mo   3.577304533738170E+00   2.956813700410320E-01   4.570608514687740E+00
    S   8.155878836371480E+00   3.257322024643230E+00   8.589293238335051E+00
    S   5.611308722468680E+00   3.287513221898420E+00   5.811917419578120E+00
    S   5.565150769297620E+00   8.409710037459490E+00   6.603488175003630E+00
    S   8.096772985156880E+00   8.535434832050710E+00   8.673857154610459E+00
    S   5.626270218683720E+00   5.498508763509270E+00   8.996135614076721E+00
    S   8.188672885334290E+00   5.656161315501160E+00   6.445043523772140E+00
    S   8.236585007779720E+00   5.852456582691800E+00   1.568873814326170E+00
    S   3.425795497193600E+00   8.430299231010380E+00   8.967626508862290E+00
    S   7.310003741230230E-01   8.428788608652271E+00   6.198969601793520E+00
    S   8.113793959150540E-01   3.521171059849970E+00   6.456972935317630E+00
    S   3.414604548823900E+00   3.507697136058280E+00   8.519324819160991E+00
    S   8.239204171131150E-01   6.843874660417050E-01   8.778630364134280E+00
    S   3.376160583830540E+00   7.447852406980280E-01   6.799298812469840E+00
    S   5.742641470011010E+00   6.061734081929380E+00   4.237081600781690E+00
    S   8.167639855752070E+00   7.907352055635630E-01   5.845898786566010E+00
    S   6.789799820860450E+00   8.544034784822720E+00   2.420811088505600E+00
    S   5.525204122677140E+00   3.838484279019720E+00   1.528955335418440E+00
    S   8.120270497381769E+00   3.078465824363600E+00   3.749177306507550E+00
    S   5.621083764150130E+00   8.641154878379280E-01   3.931679161344680E+00
    S   5.785152675033750E+00   8.711657205321820E-01   8.801535462894000E+00
    S   1.756136176386930E+00   1.549007761789730E+00   3.848326489327930E+00
    S   3.397822619427590E+00   5.808613872854000E+00   6.161742328657860E+00
    S   1.805727482289370E+00   4.071299732292980E+00   1.977572470679390E+00
    S   1.010008668295710E+00   9.187036107409700E+00   1.101650246593250E+00
    S   3.106870173250280E+00   8.085908050265621E+00   4.065823266387270E+00
    S   6.426634349758420E-01   6.048065455732590E+00   4.131758250769820E+00
    S   3.895807420222300E+00   7.059434173038950E+00   1.052057826021450E+00
    S   7.963793680571311E-01   5.759087934615800E+00   8.992223027398129E+00
