 &control

     calculation = 'scf',

     restart_mode='from_scratch',

     tprnfor=.true.

     prefix='MoS2',

     outdir='./tmp',

     max_seconds = 84500

     disk_io = 'none'

     pseudo_dir = '~/pseudo/',

 /

 &system

    ibrav = 0,

    nat =  36
    ntyp = 2

    ecutwfc = 45 , ecutrho = 360,

    occupations='smearing', smearing='mv', degauss=0.02

/

  &electrons

     diagonalization='david',

     mixing_mode  =  'local-TF',

     mixing_beta = 0.7

   /

   &ions

     ion_dynamics = 'bfgs'

  /

   &cell

     cell_dynamics = 'bfgs',

   /

 ATOMIC_SPECIES

 Mo  95.5     Mo.pw91-n-van.UPF

 S   32.065   S.pw91-van_ak.UPF

K_POINTS {automatic}
  3  3  1 0 0 0
  
CELL_PARAMETERS (angstrom)
   6.377296963335194E+00   0.000000000000000E+00   0.000000000000000E+00
  -3.182547309137360E+00   5.643553270336556E+00   0.000000000000000E+00
  -9.262569488103500E-01  -6.502805188255975E-01   2.565500374905683E+01
  
ATOMIC_POSITIONS (angstrom)
   Mo   1.647859772291680E+00   8.469134925299709E-01  -4.967778721441620E-02
   Mo  -5.238171673499130E-03   3.670351460187240E+00   5.815526290738840E-02
   Mo   4.862716003763430E+00   7.866465452961851E-01  -7.376118629111170E-02
   Mo   3.175883473732010E+00   3.783967415410660E+00   4.641170102756960E-01
   Mo  -6.790029422772400E-01   1.565879374815140E+00   2.000519568878830E+01
   Mo  -2.273546620506480E+00   4.354880324555660E+00   1.953665486829710E+01
   Mo   2.531675432817140E+00   1.558581145772830E+00   1.995608211523680E+01
   Mo   9.158745742720000E-01   4.402577676769850E+00   1.966477355758550E+01
   Mo  -2.440599547266410E-01   1.620059621485550E+00   5.435764023288390E+00
   Mo  -1.846182211688690E+00   4.533044021846720E+00   6.089564540943460E+00
   Mo   2.976436618152100E+00   1.697675871118040E+00   5.865589712046580E+00
   Mo   1.307410259642000E+00   4.462747727152950E+00   5.700747509543570E+00
    S  -1.146017340351040E-01   2.025191404679310E+00   1.132852207471570E+00
    S  -1.678225980044630E+00   4.852884790021010E+00   1.340040025535920E+00
    S   2.925317400767660E+00   2.079411530605440E+00   1.279068730612460E+00
    S   1.318632210826780E+00   4.868325606031740E+00   1.244151263990720E+00
    S   9.128132492046390E-01   7.731749093763129E-01   2.098738106822400E+01
    S  -9.822368624590110E-01   3.359784901018920E+00   2.090266772641130E+01
    S   4.019911101146960E+00   5.279284854657400E-01   2.103824494764680E+01
    S   2.319630637284280E+00   3.454776704509840E+00   2.087795780368350E+01
    S   1.287952074266380E+00   9.970881209061350E-01   6.968680118869560E+00
    S  -2.478596236878820E-01   3.742944395154970E+00   6.970321471119050E+00
    S   4.569872016133690E+00   7.330534007748160E-01   6.858760953656730E+00
    S   3.099063344699490E+00   3.518612183163810E+00   7.075581940289020E+00
    S  -8.599149711769900E-01   6.785418700849360E-01   2.444983819112650E+01
    S  -2.427896045506130E+00   3.844661718345510E+00   2.463181181796630E+01
    S   2.421420065347980E+00   6.388082601791790E-01   2.451380176938500E+01
    S   8.040914523814791E-01   3.368484647888830E+00   2.465851290608940E+01
    S   1.228959143181460E+00   4.674840785185600E-01   1.863889447269070E+01
    S  -4.545078904498330E-01   3.354252999043140E+00   1.858090885687930E+01
    S   4.262625047787830E+00   7.352883992881381E-01   1.868639389706550E+01
    S   2.567843313309260E+00   3.575695980633930E+00   1.851496677400470E+01
    S   1.484965312397620E+00   7.738893490111410E-01   4.616390510277840E+00
    S  -4.970709379016550E-01   3.453396303141760E+00   4.616686712158680E+00
    S   4.610709175734820E+00   4.958001720614070E-01   4.496824806913440E+00
    S   2.836755277120540E+00   3.554101424938090E+00   4.712925385068840E+00
