 &control

     calculation = 'scf',

     restart_mode='from_scratch',

     tprnfor=.true.

     prefix='MoS2',

     outdir='./tmp',

     max_seconds = 84500

     disk_io = 'none'

     pseudo_dir = '~/pseudo/',

 /

 &system

    ibrav = 0,

    nat =  24
    ntyp = 2

    ecutwfc = 45 , ecutrho = 360,

    occupations='smearing', smearing='mv', degauss=0.02

/

  &electrons

     diagonalization='david',

     mixing_mode  =  'local-TF',

     mixing_beta = 0.7

   /

   &ions

     ion_dynamics = 'bfgs'

  /

   &cell

     cell_dynamics = 'bfgs',

   /

 ATOMIC_SPECIES

 Mo  95.5     Mo.pw91-n-van.UPF

 S   32.065   S.pw91-van_ak.UPF

K_POINTS {automatic}
  3  3  2 0 0 0
  
CELL_PARAMETERS (angstrom)
   6.520080350216290E+00   0.000000000000000E+00   0.000000000000000E+00
  -3.269163314535004E+00   5.619626964137121E+00   0.000000000000000E+00
  -2.110912041094115E-01  -4.165840337914681E-01   9.389579113669907E+00
  
ATOMIC_POSITIONS (angstrom)
   Mo  -1.982459429751120E-02   1.788426655434720E+00   2.227985825025650E+00
   Mo  -1.672238094390990E+00   4.592573503302780E+00   2.118815637499390E+00
   Mo   3.227011056080800E+00   1.803539786152750E+00   2.127802195521910E+00
   Mo   1.574086895682540E+00   4.543824876322810E+00   2.939455336601950E+00
   Mo   1.449694971463010E+00   6.095060894304440E-01   7.303583769292180E+00
   Mo  -1.903780963018760E-01   3.432509796378380E+00   6.953706318645650E+00
   Mo   4.719269175023150E+00   6.151564052769390E-01   7.029147895071200E+00
   Mo   3.098925063437930E+00   3.439637694631710E+00   6.787151995416180E+00
    S   1.523711452741360E+00   5.423567589954290E-01   3.505309785897070E+00
    S   2.014262297093580E-02   3.483860609749590E+00   3.675891724686260E+00
    S   4.854641738008770E+00   6.718442074596480E-01   3.705285843264120E+00
    S   3.081553288633890E+00   3.418138080332340E+00   3.621506026872030E+00
    S  -2.622032464305070E-01   1.374050944976870E+00   8.307999440870470E+00
    S  -1.903259246528420E+00   4.306178020371350E+00   8.303172742602079E+00
    S   2.924385761675720E+00   1.458696856381660E+00   8.291013834413830E+00
    S   1.234241970603500E+00   4.346239617338910E+00   8.251053086307129E+00
    S   1.659397272058790E+00   1.116654506566360E+00   1.032089609212160E+00
    S  -1.546987289941970E-01   3.736852180040120E+00   1.148476109265030E+00
    S   4.890394806980090E+00   1.101571380458650E+00   1.182471532046030E+00
    S   3.369013116813350E+00   3.786975869149100E+00   1.112326012997230E+00
    S  -1.387854579064050E-01   1.757868709743750E+00   5.807764774245740E+00
    S  -1.729078100866950E+00   4.427524102426790E+00   5.782037205586190E+00
    S   3.238974304775110E+00   1.654955585008510E+00   5.779987595452830E+00
    S   1.655688997289100E+00   4.414569842631070E+00   5.751582548851610E+00
