 &control

     calculation = 'scf',

     restart_mode='from_scratch',

     tprnfor=.true.

     prefix='MoS2',

     outdir='./tmp',

     max_seconds = 84500

     disk_io = 'none'

     pseudo_dir = '~/pseudo/',

 /

 &system

    ibrav = 0,

    nat =  24
    ntyp = 2

    ecutwfc = 45 , ecutrho = 360,

    occupations='smearing', smearing='mv', degauss=0.02

/

  &electrons

     diagonalization='david',

     mixing_mode  =  'local-TF',

     mixing_beta = 0.7

   /

   &ions

     ion_dynamics = 'bfgs'

  /

   &cell

     cell_dynamics = 'bfgs',

   /

 ATOMIC_SPECIES

 Mo  95.5     Mo.pw91-n-van.UPF

 S   32.065   S.pw91-van_ak.UPF

K_POINTS {automatic}
  3  5  1 0 0 0
  
CELL_PARAMETERS (angstrom)
   6.849805765070144E+00   0.000000000000000E+00   0.000000000000000E+00
  -1.750180746780944E+00   2.971659800396515E+00   0.000000000000000E+00
  -5.013545580318808E-01   5.238992945378554E+00   2.286729219073783E+01
  
ATOMIC_POSITIONS (angstrom)
   Mo   1.160454995267200E+00   2.093884685896420E+00   2.894883218551590E+00
   Mo  -9.029521669528890E-01   4.550070224589460E+00   1.422369172794420E+01
   Mo   4.562798334103240E+00   2.125869160215350E+00   3.211356201748780E+00
   Mo   2.571480948277660E+00   4.628675688425810E+00   1.510245275779450E+01
   Mo   1.115203402849610E+00   3.574356219297770E+00   8.190099355758800E+00
   Mo   9.852106306170300E-01   6.224606248072480E+00   2.006409708490840E+01
   Mo   4.529944618179400E+00   3.562545182372780E+00   8.019268207704760E+00
   Mo   4.483303741608630E+00   6.234117385441540E+00   1.965679291656270E+01
    S   2.612413251013910E+00   3.274704790329440E+00   4.070179099836540E+00
    S   1.001045440859690E+00   5.554178335502910E+00   1.594904593876120E+01
    S   6.045020741750810E+00   3.287850736130490E+00   4.138488753209700E+00
    S   4.201121262751400E+00   5.824656714842650E+00   1.551864417188210E+01
    S  -6.542575225573370E-01   4.335432623792910E+00   9.161040099497690E+00
    S  -7.696114218045280E-01   7.113815583321020E+00   2.090660401048120E+01
    S   2.819550496392650E+00   4.311776229534970E+00   9.214183853095300E+00
    S   2.831527457031700E+00   6.825457606468180E+00   2.093113138926390E+01
    S   2.800189289034810E+00   1.128395273811820E+00   1.979706390848740E+00
    S   9.760119239184570E-01   3.629099891788310E+00   1.361451999717020E+01
    S   6.260697076659890E+00   1.344287414054910E+00   2.063926309283510E+00
    S   4.156180409970380E+00   3.679202214220880E+00   1.368265624483940E+01
    S  -7.096558796359790E-01   2.386769539935000E+00   7.009889394539550E+00
    S  -6.531595121503120E-01   5.221565735293820E+00   1.887381417338650E+01
    S   2.709525602008550E+00   2.437851426696280E+00   7.120214387157880E+00
    S   2.934839741054330E+00   5.027150228018360E+00   1.891734789661800E+01
