 &control

     calculation = 'scf',

     restart_mode='from_scratch',

     tprnfor=.true.

     prefix='MoS2',

     outdir='./tmp',

     max_seconds = 84500

     disk_io = 'none'

     pseudo_dir = '~/pseudo/',

 /

 &system

    ibrav = 0,

    nat =  24
    ntyp = 2

    ecutwfc = 45 , ecutrho = 360,

    occupations='smearing', smearing='mv', degauss=0.02

/

  &electrons

     diagonalization='david',

     mixing_mode  =  'local-TF',

     mixing_beta = 0.7

   /

   &ions

     ion_dynamics = 'bfgs'

  /

   &cell

     cell_dynamics = 'bfgs',

   /

 ATOMIC_SPECIES

 Mo  95.5     Mo.pw91-n-van.UPF

 S   32.065   S.pw91-van_ak.UPF

K_POINTS {automatic}
  3  5  1 0 0 0
  
CELL_PARAMETERS (angstrom)
   6.747201992694712E+00   0.000000000000000E+00   0.000000000000000E+00
  -1.706843751668607E+00   2.963626754349555E+00   0.000000000000000E+00
  -9.899345279946775E-01   3.896525127242667E+00   2.265110846245476E+01
  
ATOMIC_POSITIONS (angstrom)
   Mo   1.125562946374980E-01   2.420815756675030E+00   8.461707545535351E+00
   Mo  -1.078994693542730E+00   4.246928678234450E+00   1.963417371499220E+01
   Mo   3.501890398772230E+00   2.371239944203420E+00   8.088727989370510E+00
   Mo   2.318302131733460E+00   4.251203873615710E+00   2.028774102832610E+01
   Mo  -2.104842130838190E-01  -2.920448100257460E-01   2.980041478418960E+00
   Mo  -8.368296472407100E-01   1.559200220528220E+00   1.432126625029750E+01
   Mo   3.150281826008170E+00  -2.799264522106120E-01   2.847091273571990E+00
   Mo   2.467861307088740E+00   1.624317519912570E+00   1.396425709141500E+01
    S   1.884821220420670E+00   3.240209431417340E+00   9.268507502055090E+00
    S   6.060200426468720E-01   5.246722402623940E+00   2.106430351714770E+01
    S   5.162932624812730E+00   3.236675027337010E+00   9.388127665659590E+00
    S   4.110985578865780E+00   5.215718377738070E+00   2.091947330808920E+01
    S  -1.293427253004680E-01   1.540942117823560E+00   1.898232103775930E+00
    S  -9.238784921597720E-01   3.531147063913750E+00   1.315591156626330E+01
    S   3.210185414865250E+00   1.565313830478040E+00   1.874900149127780E+00
    S   2.452385169490070E+00   3.519828445020660E+00   1.308433647011900E+01
    S  -1.662030972157770E-01   3.514650304759700E+00   3.946358281895840E+00
    S  -9.294875437158920E-01   5.510478782137870E+00   1.516084268677080E+01
    S   3.190501381675120E+00   3.545803715342780E+00   3.930465157736750E+00
    S   2.431304323295660E+00   5.501322566308550E+00   1.519552608946370E+01
    S   1.803922065705030E+00   1.269173136141930E+00   7.291063698523250E+00
    S   6.589817562394490E-01   3.301546080840970E+00   1.885147441388490E+01
    S   5.249124846082410E+00   1.346820321839920E+00   7.212225784260770E+00
    S   4.011302076622620E+00   3.163595005087550E+00   1.900597426064430E+01
