 &control

     calculation = 'scf',

     restart_mode='from_scratch',

     tprnfor=.true.

     prefix='MoS2',

     outdir='./tmp',

     max_seconds = 84500

     disk_io = 'none'

     pseudo_dir = '~/pseudo/',

 /

 &system

    ibrav = 0,

    nat =  24
    ntyp = 2

    ecutwfc = 45 , ecutrho = 360,

    occupations='smearing', smearing='mv', degauss=0.02

/

  &electrons

     diagonalization='david',

     mixing_mode  =  'local-TF',

     mixing_beta = 0.7

   /

   &ions

     ion_dynamics = 'bfgs'

  /

   &cell

     cell_dynamics = 'bfgs',

   /

 ATOMIC_SPECIES

 Mo  95.5     Mo.pw91-n-van.UPF

 S   32.065   S.pw91-van_ak.UPF

K_POINTS {automatic}
  3  3  1 0 0 0
  
CELL_PARAMETERS (angstrom)
   6.699663600000001E+00   0.000000000000000E+00   0.000000000000000E+00
  -3.349831800000000E+00   5.802077400000001E+00   0.000000000000000E+00
   0.000000000000000E+00   0.000000000000000E+00   1.562295420000000E+01
  
ATOMIC_POSITIONS (angstrom)
   Mo   1.339997763665620E-01   1.883665309076280E+00   4.045407210080540E+00
   Mo  -1.757610276697640E+00   4.652963327496610E+00   3.906591694551590E+00
   Mo   3.284072294033440E+00   2.014591177063820E+00   3.734901541454840E+00
   Mo   1.622330157481040E+00   4.910767562932950E+00   3.728244582475390E+00
   Mo   1.530641694075810E+00   1.058548734654240E+00   1.161326621927350E+01
   Mo  -7.394422650932730E-02   3.852228052870380E+00   1.153206260622040E+01
   Mo   4.998215695923290E+00   1.019993588884800E+00   1.152619494950540E+01
   Mo   3.195464354977630E+00   3.810699521023280E+00   1.183071025236500E+01
    S   1.679056047586150E+00   1.014908786051840E+00   5.354731191654900E+00
    S   4.470256306351670E-02   3.819160734902200E+00   5.360156752528770E+00
    S   5.008390119721260E+00   1.139048124116030E+00   5.649544459743600E+00
    S   3.191369609591810E+00   3.775286600172930E+00   5.628139056936350E+00
    S   1.902835025452960E-02   1.973395664645050E+00   1.316518289654070E+01
    S  -1.680333477053340E+00   4.635191586434940E+00   1.336493769415710E+01
    S   3.521474269483300E+00   1.996385590658990E+00   1.344188971195590E+01
    S   1.614373602765050E+00   4.644713719670940E+00   1.337039636580420E+01
    S   1.536140348456620E+00   1.033353893118560E+00   2.134783419439000E+00
    S  -2.029619633615480E-02   3.819467866294380E+00   2.455554804763160E+00
    S   5.022845776041780E+00   9.638991432660030E-01   2.062643250610340E+00
    S   3.484664253272740E+00   3.737999379859600E+00   2.192557607638020E+00
    S  -3.145353177657890E-02   1.753663378518730E+00   1.015458444872120E+01
    S  -1.576514617145200E+00   4.710133337629590E+00   9.952807136911300E+00
    S   3.437774850460460E+00   2.113392212096730E+00   1.006440396689290E+01
    S   1.532780760166530E+00   4.905656464485270E+00   9.952370224612650E+00
