 &control

     calculation = 'scf',

     restart_mode='from_scratch',

     tprnfor=.true.

     prefix='MoS2',

     outdir='./tmp',

     max_seconds = 84500

     disk_io = 'none'

     pseudo_dir = '~/pseudo/',

 /

 &system

    ibrav = 0,

    nat =  24
    ntyp = 2

    ecutwfc = 45 , ecutrho = 360,

    occupations='smearing', smearing='mv', degauss=0.02

/

  &electrons

     diagonalization='david',

     mixing_mode  =  'local-TF',

     mixing_beta = 0.7

   /

   &ions

     ion_dynamics = 'bfgs'

  /

   &cell

     cell_dynamics = 'bfgs',

   /

 ATOMIC_SPECIES

 Mo  95.5     Mo.pw91-n-van.UPF

 S   32.065   S.pw91-van_ak.UPF

K_POINTS {automatic}
  3  6  1 0 0 0
  
CELL_PARAMETERS (angstrom)
   6.984060086858060E+00   0.000000000000000E+00   0.000000000000000E+00
  -1.736387924214996E+00   2.946501452257518E+00   0.000000000000000E+00
  -5.525493168144268E-01   6.430997477383664E+00   2.171521133910790E+01
  
ATOMIC_POSITIONS (angstrom)
   Mo   5.097231639742720E-01   3.212570723641680E+00   8.061795312038790E+00
   Mo  -7.905216828218951E-01   6.389116583165090E+00   1.858818552521760E+01
   Mo   3.881332540035480E+00   3.321335366369160E+00   7.774087292589030E+00
   Mo   2.811140343086750E+00   6.546542277466450E+00   1.967614400697400E+01
   Mo  -2.000294673986750E-01   1.035658156325860E-01   2.886226443227040E+00
   Mo  -4.951331056718060E-01   3.238671496014860E+00   1.371888077910920E+01
   Mo   3.313798581896910E+00   8.112718263601970E-02   2.745085478709980E+00
   Mo   2.820414981234010E+00   3.335624779106450E+00   1.340453731054940E+01
    S   1.967904563729680E+00   4.220149096210300E+00   9.108082334427330E+00
    S   1.211880797825320E+00   7.501278061698500E+00   2.049519796121530E+01
    S   5.437420628848070E+00   4.137589597038730E+00   8.864366203230960E+00
    S   4.690766219514960E+00   7.291114420873130E+00   2.006146606432670E+01
    S  -1.127856628525060E-01   1.941682771598120E+00   1.848136589886960E+00
    S  -5.707341796205830E-01   5.106792159743900E+00   1.254772230790220E+01
    S   3.435023054359450E+00   1.939672938231170E+00   1.788756412147380E+00
    S   2.697503830511070E+00   5.116868576149810E+00   1.252684980518620E+01
    S  -3.821493982519720E-02   3.957178711316400E+00   3.768003942667630E+00
    S  -6.355279522368460E-01   6.964954575579240E+00   1.465689955863130E+01
    S   3.427701912543660E+00   3.892136849385260E+00   3.821559752986950E+00
    S   2.883751365333480E+00   7.154865626888290E+00   1.448595392390300E+01
    S   1.890891542264340E+00   2.093557466011090E+00   6.988018257396630E+00
    S   1.129512397787670E+00   5.411714644071600E+00   1.809444251696120E+01
    S   5.287730124316100E+00   2.080592351844300E+00   6.690840155428740E+00
    S   4.672554168379810E+00   5.200714961492770E+00   1.798720134259470E+01
