 &control

     calculation = 'scf',

     restart_mode='from_scratch',

     tprnfor=.true.

     prefix='MoS2',

     outdir='./tmp',

     max_seconds = 84500

     disk_io = 'none'

     pseudo_dir = '~/pseudo/',

 /

 &system

    ibrav = 0,

    nat =  36
    ntyp = 2

    ecutwfc = 45 , ecutrho = 360,

    occupations='smearing', smearing='mv', degauss=0.02

/

  &electrons

     diagonalization='david',

     mixing_mode  =  'local-TF',

     mixing_beta = 0.7

   /

   &ions

     ion_dynamics = 'bfgs'

  /

   &cell

     cell_dynamics = 'bfgs',

   /

 ATOMIC_SPECIES

 Mo  95.5     Mo.pw91-n-van.UPF

 S   32.065   S.pw91-van_ak.UPF

K_POINTS {automatic}
  3  3  1 0 0 0
  
CELL_PARAMETERS (angstrom)
   6.339011248284938E+00   0.000000000000000E+00   0.000000000000000E+00
  -3.171017437495788E+00   5.523157101230053E+00   0.000000000000000E+00
  -4.189710935969836E-01  -2.244672379574476E-01   2.567501825961270E+01
  
ATOMIC_POSITIONS (angstrom)
   Mo   1.609228924960820E+00   8.793130328503950E-01  -2.573440839882070E-02
   Mo  -1.139973596838820E-02   3.628753949261070E+00   2.768182739906190E-02
   Mo   4.775445875954390E+00   8.563431479377710E-01  -5.225303594295430E-02
   Mo   3.162895641305600E+00   3.670611287000950E+00   2.267023226443390E-01
   Mo  -3.026296758801970E-01   1.751762189927850E+00   1.997874354320730E+01
   Mo  -1.898720600809540E+00   4.505360518982370E+00   1.975512151971580E+01
   Mo   2.869569500034510E+00   1.753402547235640E+00   1.995388895093370E+01
   Mo   1.269888927852890E+00   4.520861294206440E+00   1.981887973191700E+01
   Mo  -1.144789295518420E-01   1.740010654100220E+00   5.595768174363070E+00
   Mo  -1.702454174127170E+00   4.542104244149860E+00   5.907085034051730E+00
   Mo   3.076733666353740E+00   1.773763863347620E+00   5.796878634034690E+00
   Mo   1.449471268211930E+00   4.503382161530060E+00   5.721951107488730E+00
    S  -5.286829648341740E-02   1.924913406425680E+00   1.161777904115710E+00
    S  -1.632577163919370E+00   4.664411687103780E+00   1.257956608019130E+00
    S   3.054627872138520E+00   1.985579836058400E+00   1.207613780177390E+00
    S   1.450048969374530E+00   4.691950161955220E+00   1.225914097076120E+00
    S   1.275602225092890E+00   9.104662520974860E-01   2.106007951289190E+01
    S  -4.532322318614410E-01   3.558982905168630E+00   2.102216241808640E+01
    S   4.413149242471680E+00   7.897952492038171E-01   2.108528669708610E+01
    S   2.773614218842540E+00   3.605286383715710E+00   2.101295247625130E+01
    S   1.440266482473540E+00   9.725399090605340E-01   6.955945150485510E+00
    S  -1.186865899944050E-01   3.690101325798090E+00   6.949682236942870E+00
    S   4.657501727997320E+00   8.425946491511040E-01   6.903193734450800E+00
    S   3.135564103760110E+00   3.592188276388070E+00   6.999563654831730E+00
    S  -4.073848468546680E-01   1.351839684289190E+00   2.448646555789820E+01
    S  -1.959238827792480E+00   4.276805257913760E+00   2.456599363456990E+01
    S   2.867919812317670E+00   1.331038211624640E+00   2.454679175959960E+01
    S   1.235039610395250E+00   4.056595803931040E+00   2.457039064497930E+01
    S   1.416698289535310E+00   7.447190454023560E-01   1.869783328584330E+01
    S  -2.031760611341390E-01   3.548513535738030E+00   1.866498786673000E+01
    S   4.520475087843250E+00   8.860383048719180E-01   1.872083810871660E+01
    S   2.889509078562560E+00   3.654782918510660E+00   1.864599274550510E+01
    S   1.539565849351750E+00   8.585649464398580E-01   4.592691338065510E+00
    S  -2.380406220682660E-01   3.551908339311080E+00   4.585763236747190E+00
    S   4.675331713339750E+00   7.187064767557060E-01   4.537586271381620E+00
    S   3.004670054966960E+00   3.607316191583000E+00   4.633475675793950E+00
