 &control

     calculation = 'scf',

     restart_mode='from_scratch',

     tprnfor=.true.

     prefix='MoS2',

     outdir='./tmp',

     max_seconds = 84500

     disk_io = 'none'

     pseudo_dir = '~/pseudo/',

 /

 &system

    ibrav = 0,

    nat =  36
    ntyp = 2

    ecutwfc = 45 , ecutrho = 360,

    occupations='smearing', smearing='mv', degauss=0.02

/

  &electrons

     diagonalization='david',

     mixing_mode  =  'local-TF',

     mixing_beta = 0.7

   /

   &ions

     ion_dynamics = 'bfgs'

  /

   &cell

     cell_dynamics = 'bfgs',

   /

 ATOMIC_SPECIES

 Mo  95.5     Mo.pw91-n-van.UPF

 S   32.065   S.pw91-van_ak.UPF

K_POINTS {automatic}
  3  3  1 0 0 0
  
CELL_PARAMETERS (angstrom)
   6.700352400000000E+00   0.000000000000000E+00   0.000000000000000E+00
  -3.350176200000000E+00   5.802675900000001E+00   0.000000000000000E+00
   0.000000000000000E+00   0.000000000000000E+00   2.238411000000000E+01
  
ATOMIC_POSITIONS (angstrom)
   Mo   1.676423575608750E+00   8.672068839209141E-01   7.452217315000860E+00
   Mo  -8.905331202882789E-02   3.908814331112320E+00   7.477344684969550E+00
   Mo   5.027417573594380E+00   8.703782661152270E-01   7.431111889573400E+00
   Mo   3.296770288451950E+00   3.858970674220630E+00   7.540381470910560E+00
   Mo  -3.188650889702740E-02   2.001460865546990E+00   1.485095111828020E+01
   Mo  -1.718767129440430E+00   4.748689063158730E+00   1.489441064812040E+01
   Mo   3.348334675951110E+00   1.834782187921000E+00   1.490738806306430E+01
   Mo   1.705219439079720E+00   4.859302056619060E+00   1.482540583768930E+01
   Mo   1.250199701597930E-03   9.329623757902800E-02   2.234314267037970E+01
   Mo  -1.685188109916570E+00   2.881884008496760E+00   2.228155024438190E+01
   Mo   3.267090436633750E+00   5.548896251842190E-02   2.237490752829030E+01
   Mo   1.751187553057570E+00   2.965658624559860E+00   2.238758734981690E+01
    S  -6.149419197886160E-02   1.928568348581690E+00   1.717216933609090E+00
    S  -1.701668131739340E+00   4.903842752803120E+00   1.570505521876910E+00
    S   3.361909786878700E+00   1.955842605322690E+00   1.541633721506780E+00
    S   1.713849041001060E+00   4.771700558399090E+00   1.705036372492140E+00
    S   3.303960345897340E-02   5.635237032796620E-02   5.737169534892940E+00
    S  -1.710844275674840E+00   2.994443491585300E+00   5.820154835204890E+00
    S   3.330184984984150E+00  -9.781955347734010E-02   5.818513814411260E+00
    S   1.758450054805140E+00   2.956161249959050E+00   5.819607128739760E+00
    S   6.617587784699450E-02   4.933247681995230E-03   9.025114959826830E+00
    S  -1.666344340480250E+00   2.891840640696520E+00   9.000760920775321E+00
    S   3.281843823049660E+00  -3.050268568724100E-02   9.166258708114940E+00
    S   1.645607493825070E+00   2.939123236283270E+00   9.187691840829469E+00
    S   1.661833593258670E+00   8.751988218521300E-01   1.331134580867400E+01
    S  -8.822391592394820E-02   3.879941061278520E+00   1.331990024981910E+01
    S   5.096285691696680E+00   9.542948936826960E-01   1.320502353039600E+01
    S   3.252431843912910E+00   3.888034944955620E+00   1.326636510494670E+01
    S   1.730094700103710E+00   9.555586797369180E-01   1.664399695284310E+01
    S  -5.269598704215120E-02   3.787797928930520E+00   1.653448634198110E+01
    S   4.968394856848950E+00   1.049252773420290E+00   1.655698354093080E+01
    S   3.332515928002910E+00   3.851209609778740E+00   1.646438036523910E+01
    S  -5.280390304241960E-02   2.003779239433940E+00   2.068690533977030E+01
    S  -1.626968524757640E+00   4.898320353891260E+00   2.079683689667560E+01
    S   3.364468123428050E+00   1.978047499327520E+00   2.082437562809330E+01
    S   1.691524382602920E+00   4.813723935404420E+00   2.063944076598970E+01
