 &control

     calculation = 'relax',

     restart_mode='from_scratch',

     tprnfor=.true.

     prefix='MoS2',

     outdir='./tmp',

     max_seconds = 84500

     disk_io = 'none'

     pseudo_dir = '~/pseudo/',

     nstep= 4

 /

 &system

    ibrav = 0,

    nat =  24
    ntyp = 2

    ecutwfc = 45 , ecutrho = 360,

    occupations='smearing', smearing='mv', degauss=0.02

/

  &electrons

     diagonalization='david',

     mixing_mode  =  'local-TF',

     mixing_beta = 0.7

   /

   &ions

     ion_dynamics = 'bfgs'

  /

   &cell

     cell_dynamics = 'bfgs',

   /

 ATOMIC_SPECIES

 Mo  95.5     Mo.pw91-n-van.UPF

 S   32.065   S.pw91-van_ak.UPF

K_POINTS {automatic}
  3  3  1 0 0 0
  
CELL_PARAMETERS (angstrom)
   6.457690298589570E+00   0.000000000000000E+00   0.000000000000000E+00
   3.230512046470160E+00   5.593281806878440E+00   0.000000000000000E+00
   1.362870065420520E-01   7.043495005688920E-01   1.559495233999620E+01
  
ATOMIC_POSITIONS (angstrom)
   Mo   8.692381748696399E-01   8.134693860953810E-01   1.118897490086660E+01
   Mo   5.713640127292920E+00   3.617924247438770E+00   1.119886661422810E+01
   Mo   4.101830838665230E+00   8.058193523740180E-01   1.118313852390120E+01
   Mo   2.491053215615810E+00   3.616508410864830E+00   1.119440063656510E+01
   Mo   8.952692504778280E+00   5.474370401908100E+00   4.356821947884150E+00
   Mo   4.113255379697160E+00   2.659851787660070E+00   4.355421708605980E+00
   Mo   5.728537520022100E+00   5.457118018119050E+00   4.366316104908220E+00
   Mo   7.347099220756010E+00   2.667672376010810E+00   4.358923968970240E+00
    S   2.493640349898610E+00   1.743940881578330E+00   1.275463051635160E+01
    S   7.338758975943090E+00   4.545417491779150E+00   1.276817594270350E+01
    S   5.712520187321590E+00   1.746520779760920E+00   1.275631727055620E+01
    S   4.102635910191610E+00   4.553043284678620E+00   1.277471824005550E+01
    S   5.733917589201690E+00   1.740742039687850E+00   2.778616387018240E+00
    S   4.108558650247360E+00   4.528486826007750E+00   2.795077388146300E+00
    S   2.495285125692190E+00   1.717293508919500E+00   2.787329414401030E+00
    S   7.342856965302100E+00   4.532318679788000E+00   2.789298960839060E+00
    S   5.731319761891680E+00   1.744493062366310E+00   5.943914229237000E+00
    S   4.100592243511420E+00   4.533323628101390E+00   5.940504514928180E+00
    S   2.502913754944670E+00   1.732217155680070E+00   5.944745480963650E+00
    S   7.349154453868140E+00   4.533263339796480E+00   5.949169905235150E+00
    S   2.484502235292620E+00   1.750431533482790E+00   9.609693052599100E+00
    S   7.325478006868310E+00   4.527386963307140E+00   9.601641685509369E+00
    S   5.710039373458710E+00   1.754103805232350E+00   9.606047778569661E+00
    S   4.101238380911820E+00   4.543354093092880E+00   9.605934885710870E+00
