 &control

     calculation = 'scf',

     restart_mode='from_scratch',

     tprnfor=.true.

     prefix='MoS2',

     outdir='./tmp',

     max_seconds = 84500

     disk_io = 'none'

     pseudo_dir = '~/pseudo/',

 /

 &system

    ibrav = 0,

    nat =  36
    ntyp = 2

    ecutwfc = 45 , ecutrho = 360,

    occupations='smearing', smearing='mv', degauss=0.02

/

  &electrons

     diagonalization='david',

     mixing_mode  =  'local-TF',

     mixing_beta = 0.7

   /

   &ions

     ion_dynamics = 'bfgs'

  /

   &cell

     cell_dynamics = 'bfgs',

   /

 ATOMIC_SPECIES

 Mo  95.5     Mo.pw91-n-van.UPF

 S   32.065   S.pw91-van_ak.UPF

K_POINTS {automatic}
  3  3  1 0 0 0
  
CELL_PARAMETERS (angstrom)
   6.896786726626392E+00   0.000000000000000E+00   0.000000000000000E+00
  -3.328010005556962E+00   5.955560908281740E+00   0.000000000000000E+00
   2.048675517438790E+00  -4.697884862626317E-01   2.171135913178422E+01
  
ATOMIC_POSITIONS (angstrom)
   Mo   2.600588188364730E+00   8.369956113013850E-01  -1.016065614056640E-01
   Mo   4.577021558337170E-01   3.575999161053460E+00   7.766423658714940E-02
   Mo   5.893271874552810E+00   8.290247000493171E-01  -1.192865494932600E-01
   Mo   3.858184379853930E+00   3.735356264161880E+00   5.956145867261780E-01
   Mo   1.243824135730510E+00   2.394984215771610E+00   1.670279310702590E+01
   Mo  -6.921785849645470E-01   4.855832514590930E+00   1.601150120760440E+01
   Mo   4.344355063152640E+00   2.045313028355290E+00   1.643043015331170E+01
   Mo   3.089148197473930E+00   5.461798072516320E+00   1.601610397554250E+01
   Mo  -4.790266463601890E-02   1.591757476809750E+00   4.756555920828300E+00
   Mo  -1.570392831428030E+00   5.172877131549380E+00   5.640611872957410E+00
   Mo   3.532493619765630E+00   2.350058072614560E+00   5.919032170154540E+00
   Mo   1.504315021887870E+00   4.763680768341260E+00   5.124840774611290E+00
    S   4.179696192021360E-01   1.535634115916290E+00   9.357278170340020E-01
    S  -1.221385106735970E+00   4.356029418497720E+00   1.260911767172800E+00
    S   3.980246806715240E+00   1.608316771203980E+00   1.069453544758800E+00
    S   2.011982451684320E+00   4.364116457437530E+00   1.254124972006400E+00
    S   2.882839492951500E+00   1.368835342840380E+00   1.754102771265960E+01
    S   1.007915039076880E+00   4.205082469090350E+00   1.732045257321770E+01
    S   6.324136429906370E+00   1.195374253806060E+00   1.721403151835750E+01
    S   4.553752496320260E+00   4.292291580074020E+00   1.716011715632950E+01
    S   3.460586999927470E+00   8.365605279332590E-02   6.450491137248790E+00
    S   1.846839311504560E+00   3.245081217712340E+00   6.569674132421010E+00
    S   7.079953821751610E+00   2.390786927772370E-01   6.332594339979510E+00
    S   5.327799521673310E+00   3.045275963600820E+00   6.489563756473190E+00
    S   6.169855541888590E-01   2.123355938375540E+00   2.063783519136600E+01
    S  -9.073315740764260E-01   4.887103945410790E+00   2.078831945647460E+01
    S   4.121274257537930E+00   2.180142988058440E+00   2.067201809136200E+01
    S   2.541776369026600E+00   4.982236467589990E+00   2.063332875147430E+01
    S   4.407666954567910E+00   1.811921594482630E-01   1.523876408468470E+01
    S   2.826880329464820E+00   3.144342429753880E+00   1.531171577279370E+01
    S   8.018737448037580E+00   2.157596495372780E-01   1.511240892744710E+01
    S   6.192373741472400E+00   3.103151366214180E+00   1.515941355873380E+01
    S   1.778098488135540E+00   9.177957840177140E-01   4.222568818158670E+00
    S  -8.754935384835100E-02   3.828799529136460E+00   4.255198508502210E+00
    S   5.104493626295110E+00   6.946937408762150E-01   4.191783064149790E+00
    S   3.375202309331130E+00   3.995714886191740E+00   4.514725704238910E+00
