 &control

     calculation = 'relax',

     restart_mode='from_scratch',

     tprnfor=.true.

     prefix='MoS2',

     outdir='./tmp',

     max_seconds = 84500

     disk_io = 'none'

     pseudo_dir = '~/pseudo/',

     nstep= 4

 /

 &system

    ibrav = 0,

    nat =  36
    ntyp = 2

    ecutwfc = 45 , ecutrho = 360,

    occupations='smearing', smearing='mv', degauss=0.02

/

  &electrons

     diagonalization='david',

     mixing_mode  =  'local-TF',

     mixing_beta = 0.7

   /

   &ions

     ion_dynamics = 'bfgs'

  /

   &cell

     cell_dynamics = 'bfgs',

   /

 ATOMIC_SPECIES

 Mo  95.5     Mo.pw91-n-van.UPF

 S   32.065   S.pw91-van_ak.UPF

K_POINTS {automatic}
  3  3  1 0 0 0
  
CELL_PARAMETERS (angstrom)
   6.449821533265710E+00   0.000000000000000E+00   0.000000000000000E+00
  -3.225037813383050E+00   5.585597042555770E+00   0.000000000000000E+00
  -2.296369935505600E+00  -2.475931809584420E+00   2.706091377488820E+01
  
ATOMIC_POSITIONS (angstrom)
   Mo  -8.675728800310790E-02  -2.853263521385840E-01   1.067097942327790E+01
   Mo  -1.699280077390100E+00   2.507472002963730E+00   1.067083456357140E+01
   Mo   3.138155792178460E+00  -2.853260068292570E-01   1.067100291393830E+01
   Mo   1.525628221099390E+00   2.507473889044970E+00   1.067092930592260E+01
   Mo   1.521877624600790E-01   1.824962692547960E+00   1.830654269379340E+01
   Mo   1.764743244413420E+00  -9.678803932065621E-01   1.830661490768230E+01
   Mo  -3.072683153175720E+00   1.824972207859820E+00   1.830663980517360E+01
   Mo  -1.460222181067440E+00  -9.678725920786880E-01   1.830649710048700E+01
   Mo   1.897793614749090E-01   1.865329801876290E+00   2.513251886025720E+01
   Mo   1.802335488658110E+00  -9.275277748440270E-01   2.513264745463370E+01
   Mo  -3.035097130018060E+00   1.865313367843340E+00   2.513247427975700E+01
   Mo  -1.422584867812330E+00  -9.274953606537470E-01   2.513268536774970E+01
    S   1.900823070223180E-01   3.636749975881630E-03   2.670376400491950E+01
    S  -1.422517344290070E+00   2.796266292239660E+00   2.670371496972190E+01
    S  -3.034873884771880E+00   3.636335076474640E-03   2.670374648611400E+01
    S  -4.647377074459380E+00   2.796253754629080E+00   2.670369065766890E+01
    S   1.525846235907680E+00   6.458047330554409E-01   9.099463840182629E+00
    S  -8.664392954645560E-02   3.438690772267270E+00   9.099397331836769E+00
    S   4.750740671792280E+00   6.457526729282040E-01   9.099420130979111E+00
    S   3.138191034633350E+00   3.438675340203910E+00   9.099383821658639E+00
    S   1.525256867945980E+00   6.452505297887901E-01   1.224925324571060E+01
    S  -8.730929943628750E-02   3.437965672135470E+00   1.224918840670450E+01
    S  -1.699633690273320E+00   6.452983912506990E-01   1.224921424396090E+01
    S  -3.312142805500960E+00   3.437975717379420E+00   1.224917453029100E+01
    S  -1.460032141274120E+00   2.756076948303280E+00   1.673176460404020E+01
    S   1.525389307253070E-01  -3.677115965430850E-02   1.673178694061940E+01
    S   1.764945303293450E+00   2.755991676251570E+00   1.673173744866800E+01
    S   3.377362833039700E+00  -3.667306396545820E-02   1.673177405269820E+01
    S  -1.459930850552390E+00   2.756072991782800E+00   1.988864331665970E+01
    S   1.524809854790480E-01  -3.673315477405670E-02   1.988849659726090E+01
    S   1.764868573826840E+00   2.756115548705620E+00   1.988853820732780E+01
    S   3.377484029712970E+00  -3.671812205469900E-02   1.988856532976650E+01
    S   1.894514364702960E-01   3.053536621686530E-03   2.354704041876330E+01
    S  -1.423077204219080E+00   2.795972643139820E+00   2.354685469579500E+01
    S  -3.035459188770190E+00   3.040906611216810E-03   2.354698637503920E+01
    S  -4.648016454966350E+00   2.796020095344980E+00   2.354692033723480E+01
