 &control

     calculation = 'scf',

     restart_mode='from_scratch',

     tprnfor=.true.

     prefix='MoS2',

     outdir='./tmp',

     max_seconds = 84500

     disk_io = 'none'

     pseudo_dir = '~/pseudo/',

 /

 &system

    ibrav = 0,

    nat =  36
    ntyp = 2

    ecutwfc = 45 , ecutrho = 360,

    occupations='smearing', smearing='mv', degauss=0.02

/

  &electrons

     diagonalization='david',

     mixing_mode  =  'local-TF',

     mixing_beta = 0.7

   /

   &ions

     ion_dynamics = 'bfgs'

  /

   &cell

     cell_dynamics = 'bfgs',

   /

 ATOMIC_SPECIES

 Mo  95.5     Mo.pw91-n-van.UPF

 S   32.065   S.pw91-van_ak.UPF

K_POINTS {automatic}
  3  6  1 0 0 0
  
CELL_PARAMETERS (angstrom)
   6.696963414416749E+00   0.000000000000000E+00   0.000000000000000E+00
  -1.510881794414697E+00   2.931561898009309E+00   0.000000000000000E+00
  -7.643551821126753E+00  -2.068928013000100E+01   3.137862865522473E+01
  
ATOMIC_POSITIONS (angstrom)
   Mo   1.749006237587810E+00  -1.325001393541470E+00   5.125394184226720E+00
   Mo  -3.732400247239430E+00  -1.296958247807350E+01   2.066055384086980E+01
   Mo   5.164066333649150E+00  -1.456146277626810E+00   5.486242066596790E+00
   Mo  -3.433948261270130E-01  -1.309162518163330E+01   2.145662852209300E+01
   Mo  -2.220513792624720E+00  -5.524094900973010E+00   1.029702136272850E+01
   Mo  -6.243430302785210E+00  -1.500921143786770E+01   2.600647143131540E+01
   Mo   1.099209927365530E+00  -5.528024894806120E+00   1.022332702580250E+01
   Mo  -2.965671064088490E+00  -1.499625285486700E+01   2.619614808613840E+01
   Mo  -3.360771837034310E+00  -1.065551408744950E+01   1.536769006116740E+01
   Mo  -8.357620675717429E+00  -2.090278733515120E+01   3.170485088434000E+01
   Mo   1.328441341702990E-01  -1.074451820871680E+01   1.605907875277130E+01
   Mo  -4.908302479620320E+00  -2.080393037838020E+01   3.106204208586190E+01
    S  -8.210764320089190E-01   1.540075885518030E+00   1.235448028157870E+00
    S  -4.969335949621910E+00  -9.573518380165201E+00   1.656719544100150E+01
    S   2.660296652994020E+00   1.477356821793800E+00   1.042284527107100E+00
    S  -1.673901332994370E+00  -9.692903686855050E+00   1.682446221454190E+01
    S  -9.009068236034470E-02  -2.534068400411940E+00   4.273665047302080E+00
    S  -5.509110101554260E+00  -1.187485557633630E+01   2.009446949383060E+01
    S   3.290861174823570E+00  -2.407379366321660E+00   4.316089174464150E+00
    S  -1.731607742031240E+00  -1.348995353792870E+01   1.992800380921730E+01
    S  -2.033373541864450E+00  -3.491689787196240E+00   6.277776753709100E+00
    S  -5.279221380188150E+00  -1.402254575302740E+01   2.199787273991610E+01
    S   1.330291442383400E+00  -3.259122272061840E+00   6.253664198173360E+00
    S  -1.557766481737540E+00  -1.458893555822770E+01   2.223397868771840E+01
    S  -1.512037086820930E+00  -7.079823390434090E+00   9.133694440245041E+00
    S  -4.293424575461190E+00  -1.636398181913620E+01   2.492538428262580E+01
    S   1.838196678762870E+00  -7.101457942604610E+00   9.066860500307991E+00
    S  -8.216374825980430E-01  -1.635179927175570E+01   2.502331596097260E+01
    S  -3.537839543036960E-01  -6.035869709011220E+00   1.136528628338330E+01
    S  -4.819302397719750E+00  -1.557045484241330E+01   2.724016143854850E+01
    S   2.928359751558020E+00  -5.958995707844600E+00   1.133262900974270E+01
    S  -1.644719444783650E+00  -1.585472538731160E+01   2.730920191081010E+01
    S  -2.943981986488130E+00  -8.871093608772300E+00   1.472401691156830E+01
    S  -8.349259298705960E+00  -1.721793307046520E+01   3.046123065091760E+01
    S   5.594838233644710E-02  -8.559229830521939E+00   1.467083099294380E+01
    S  -4.590277436207110E+00  -1.847442195002290E+01   3.012781914816000E+01
