 &control

     calculation = 'relax',

     restart_mode='from_scratch',

     tprnfor=.true.

     prefix='MoS2',

     outdir='./tmp',

     max_seconds = 84500

     disk_io = 'none'

     pseudo_dir = '~/pseudo/',

     nstep= 4

 /

 &system

    ibrav = 0,

    nat =  36
    ntyp = 2

    ecutwfc = 45 , ecutrho = 360,

    occupations='smearing', smearing='mv', degauss=0.02

/

  &electrons

     diagonalization='david',

     mixing_mode  =  'local-TF',

     mixing_beta = 0.7

   /

   &ions

     ion_dynamics = 'bfgs'

  /

   &cell

     cell_dynamics = 'bfgs',

   /

 ATOMIC_SPECIES

 Mo  95.5     Mo.pw91-n-van.UPF

 S   32.065   S.pw91-van_ak.UPF

K_POINTS {automatic}
  3  3  1 0 0 0
  
CELL_PARAMETERS (angstrom)
   6.493031540097070E+00   0.000000000000000E+00   0.000000000000000E+00
   3.270238380192270E+00   5.584635738235730E+00   0.000000000000000E+00
   5.337245171835080E+00   1.176209711079450E+00   2.643403753558580E+01
  
ATOMIC_POSITIONS (angstrom)
   Mo   5.935453853256950E+00   1.841496527375800E+00   1.603616103105390E+01
   Mo   9.314263844843421E+00   1.829182519946720E+00   1.598370205787200E+01
   Mo   1.090421878123480E+01   4.584844088653930E+00   1.604781546492480E+01
   Mo   7.607342927875590E+00   4.672267012699040E+00   1.602888487480940E+01
   Mo   8.486980724136281E+00   3.656070603212810E+00   8.432218968807909E+00
   Mo   5.008627783150590E+00   3.608940313750280E+00   8.421895728360949E+00
   Mo   3.489543437341810E+00   8.247996363938190E-01   8.553325436997870E+00
   Mo   6.697091404048290E+00   8.032022344696540E-01   8.317623015524180E+00
   Mo   8.828985489245239E+00   4.084601243289340E+00   2.099674823018750E+00
   Mo   5.598394963810830E+00   4.088377015194880E+00   1.820080886277600E+00
   Mo   3.923748049879680E+00   1.341414037840330E+00   2.035756907638430E+00
   Mo   7.243423499729870E+00   1.260067765539510E+00   1.994454376886790E+00
    S   1.268766361036390E+01   4.296169049574350E+00   2.686083208145860E+01
    S   9.215388969802120E+00   4.363605014063070E+00   2.684435384408150E+01
    S   1.099372431146660E+01   7.202559885892170E+00   2.681798051681540E+01
    S   1.413103676894340E+01   7.116202655512330E+00   2.691166685384980E+01
    S   6.060420628660370E+00   3.701263448566760E+00   1.762445894280000E+01
    S   9.259739365693340E+00   3.703604844709350E+00   1.756913626419590E+01
    S   7.674663391985180E+00   9.297437438605650E-01   1.753337643947140E+01
    S   4.381377914226550E+00   9.253935334362090E-01   1.764027033222640E+01
    S   5.976565224895590E+00   3.696693423638740E+00   1.445609786522160E+01
    S   9.226241152863871E+00   3.734391788290580E+00   1.446074733425080E+01
    S   7.574810779204190E+00   8.851809974300030E-01   1.451314688501380E+01
    S   4.380863904714010E+00   8.881938650727550E-01   1.436670673985240E+01
    S   3.490583670615280E+00   2.679802682010450E+00   1.008142144221610E+01
    S   6.758739833233190E+00   2.703674068818160E+00   9.927299522583739E+00
    S   5.184498540426170E+00  -4.054011188588160E-02   1.003060191720170E+01
    S   1.739336817544250E+00  -8.267701083222791E-02   9.999805405976151E+00
    S   3.481480246144580E+00   2.526816558968180E+00   6.803466921211390E+00
    S   6.799462034725650E+00   2.784903588976320E+00   6.933351205290200E+00
    S   8.265381733432539E+00   5.482204552497970E+00   6.806798449377360E+00
    S   5.211749077624960E+00   5.471314393360740E+00   6.883150960442570E+00
    S   7.073773495957530E+00   3.127112904254330E+00   3.519188592260080E+00
    S   4.056902953960660E+00   3.232702246301130E+00   3.594124253392680E+00
    S   5.591689140478590E+00   5.817448777782710E+00   3.548216355698560E+00
    S   8.824342409238611E+00   6.001094547356410E+00   3.590348679620690E+00
