 &control

     calculation = 'scf',

     restart_mode='from_scratch',

     tprnfor=.true.

     prefix='MoS2',

     outdir='./tmp',

     max_seconds = 84500

     disk_io = 'none'

     nstep= 12

     pseudo_dir = '~/pseudo/',

 /

 &system

    ibrav = 0,

    nat =  42
    ntyp = 2

    ecutwfc = 45 , ecutrho = 360,

    occupations='smearing', smearing='mv', degauss=0.02

/

  &electrons

     diagonalization='david',

     mixing_mode  =  'local-TF',

     mixing_beta = 0.7

   /

   &ions

     ion_dynamics = 'bfgs'

  /

   &cell

     cell_dynamics = 'bfgs',

   /

 ATOMIC_SPECIES

 Mo  95.5     Mo.pw91-n-van.UPF

 S   32.065   S.pw91-van_ak.UPF

K_POINTS {automatic}
  2  2  2 0 0 0
  
CELL_PARAMETERS (angstrom)
   9.937902531912430E+00   0.000000000000000E+00   0.000000000000000E+00
  -4.134128859173760E-01   1.029921404072660E+01   0.000000000000000E+00
  -2.256229181468720E+00  -9.769192269813910E-01   1.145824706672450E+01
  
ATOMIC_POSITIONS (angstrom)
   Mo  -7.995404569607820E-01   5.385696983333390E+00   7.026957225038910E+00
   Mo   2.609822851645270E+00   5.317520682007830E+00   9.703757486242109E+00
   Mo  -6.061556654957900E-01  -7.437076551425400E-01   8.909936814673520E+00
   Mo   1.464421918774240E+00   8.789480527132350E+00   7.537977833900780E+00
   Mo   4.437966991714120E+00   4.383432195512700E-01   7.182562154940450E+00
   Mo   6.859362519947980E+00   8.689839603396670E-01   9.091944393718229E+00
   Mo   4.635800246427140E+00   3.335695226533870E+00   9.631340238937909E+00
   Mo   7.066069219644890E+00   3.301426404147540E+00   7.065962032709530E+00
   Mo   2.292397484432830E+00  -1.275166674914430E-01   5.040724808334730E+00
   Mo  -8.402554919884800E-01   3.139609923489260E+00   4.997420049447990E+00
   Mo   4.857128066103330E+00   4.223875958484320E+00   2.579161698709760E-01
   Mo   6.714772386947230E+00   6.162714521161240E+00   5.450174542108470E-01
   Mo   7.195285100330950E+00   5.399589601878970E+00   4.921768149457270E+00
   Mo   3.640710416953850E+00   8.085722514700629E+00   5.933998429055920E+00
    S   3.199885434743310E-01   5.984068843546420E+00   9.032921447567251E+00
    S   2.630407474185850E+00   5.833317865767490E+00   7.200202051014220E+00
    S   1.963343832813200E+00   7.758310745154690E-01   7.163810974416300E+00
    S  -8.471045828478579E-01   1.357263465945830E+00   9.978771155413771E+00
    S   2.170292925505580E+00   3.028901795317990E+00   9.434788974669500E+00
    S  -4.372751145021100E-01   3.056627589082980E+00   7.296908142768240E+00
    S   3.695883083333390E+00   2.648510175764850E+00   1.511724326416620E+00
    S   4.611195086477470E+00   7.692065921371940E-01   9.731366064230381E+00
    S   6.894583662712190E+00   7.726494979966440E-01   6.893319942021180E+00
    S   6.891847632331190E+00   5.769714044330480E+00   7.211376597219840E+00
    S   4.975868806112050E+00   5.802450697707670E+00   9.775520509492029E+00
    S   6.919962354454670E+00   8.983854764559590E+00   9.852922405821211E+00
    S   3.780597113142000E+00   8.488890072141549E+00   8.210318753868989E+00
    S  -5.695191488530990E-02   8.272299735691130E-01   4.707631037612220E+00
    S  -8.577003575790110E-01   8.209717931616771E+00   6.934250653878380E+00
    S   1.514133532928450E+00   1.002707412463190E+01   2.534016401513630E+00
    S   4.471582714338710E+00   6.500010848993630E+00   5.838183841109830E-01
    S  -2.873763844464570E-01   5.446203351802210E+00   4.743985728385950E+00
    S   1.516203112015180E+00   7.945744272731990E+00   5.212097654906850E+00
    S   9.485224726485800E-01   8.970161254865470E+00   9.880808346074231E+00
    S   4.911331706361320E+00   6.361024108328470E+00   4.875375907259960E+00
    S   4.628531547794800E+00   2.959615674931120E+00   7.138030671666190E+00
    S   7.482489108678130E+00   6.685584492450090E+00   2.730394698082350E+00
    S   1.042549857938620E-01   3.246081851224710E+00   2.656342780292600E+00
    S   4.625048337505240E+00  -1.676288019637480E-01   4.860744787524040E+00
    S   6.845524003759910E+00   3.163290770930090E+00   4.649200160088320E+00
    S   7.097358942796380E+00   3.902115726283320E+00   5.846548966797090E-01
    S   7.113530660955210E+00   3.205639166424020E+00   9.565953556230779E+00
