 &control

     calculation = 'scf',

     restart_mode='from_scratch',

     tprnfor=.true.

     prefix='MoS2',

     outdir='./tmp',

     max_seconds = 84500

     disk_io = 'none'

     pseudo_dir = '~/pseudo/',

 /

 &system

    ibrav = 0,

    nat =  36
    ntyp = 2

    ecutwfc = 45 , ecutrho = 360,

    occupations='smearing', smearing='mv', degauss=0.02

/

  &electrons

     diagonalization='david',

     mixing_mode  =  'local-TF',

     mixing_beta = 0.7

   /

   &ions

     ion_dynamics = 'bfgs'

  /

   &cell

     cell_dynamics = 'bfgs',

   /

 ATOMIC_SPECIES

 Mo  95.5     Mo.pw91-n-van.UPF

 S   32.065   S.pw91-van_ak.UPF

K_POINTS {automatic}
  3  3  1 0 0 0
  
CELL_PARAMETERS (angstrom)
   6.380630000000000E+00   0.000000000000000E+00   0.000000000000000E+00
  -3.190316000000000E+00   5.525788000000000E+00   0.000000000000000E+00
   0.000000000000000E+00   0.000000000000000E+00   3.231850600000000E+01
  
ATOMIC_POSITIONS (angstrom)
   Mo   1.719014116783680E+00   8.830847656231600E-01   1.523977532681230E-01
   Mo  -7.498643431618010E-02   3.826626566473970E+00  -1.182960660149130E-01
   Mo   4.637718332183190E+00   1.055088507593030E+00  -1.337280850827860E-02
   Mo   3.195561473110980E+00   3.641657623502360E+00  -1.954267994620380E-01
   Mo   5.337729038594990E-02   1.700839786866690E+00   2.501032908933630E+01
   Mo  -1.608242344822460E+00   4.608066902855820E+00   2.507855747054540E+01
   Mo   3.145050104462160E+00   1.794452513523570E+00   2.469007531248120E+01
   Mo   1.709984958739600E+00   4.527537396456990E+00   2.473464858436660E+01
   Mo  -5.275868852754980E-03   1.841433584111120E+00   7.239564016786400E+00
   Mo  -1.644490867568560E+00   4.798152427305590E+00   7.453302398695030E+00
   Mo   3.083156878113570E+00   1.818551244645890E+00   7.606739097105180E+00
   Mo   1.402872661678540E+00   4.591443465700410E+00   7.492864530558460E+00
    S   1.783096585414710E-01   1.926640841701470E+00   1.532814879158940E+00
    S  -1.765098302610670E+00   4.529150392978240E+00   1.638341065231170E+00
    S   3.200619089671450E+00   1.822689617702820E+00   1.763699771038010E+00
    S   1.599294382134820E+00   4.623333814395060E+00   1.763993003563080E+00
    S   1.555217888360360E+00   8.665818364395800E-01   2.625559961881260E+01
    S  -1.860655852916070E-01   3.648806114081710E+00   2.637944878244090E+01
    S   4.889152674530360E+00   1.047485095056380E+00   2.632879568881050E+01
    S   3.208129399131940E+00   3.879148351246540E+00   2.648317127808820E+01
    S   1.525026754784320E+00   9.881536412375620E-01   9.179222426850240E+00
    S   1.875599560570050E-01   3.712097712052770E+00   9.067824147001190E+00
    S   4.744403359047950E+00   8.935188205961200E-01   9.198192215192980E+00
    S   3.116507713662770E+00   3.638834537415570E+00   9.184735834326149E+00
    S  -2.815287435521540E-02   1.644427916118900E+00   3.073945709305050E+01
    S  -1.596815083698750E+00   4.539805143251720E+00   3.056448262885490E+01
    S   3.188062685005850E+00   1.849089900433860E+00   3.095347075943860E+01
    S   1.690109376635280E+00   4.460509025459770E+00   3.085439254507850E+01
    S   1.438409089479280E+00   8.994269057789390E-01   2.343645195299300E+01
    S   9.586880075946209E-02   3.730715817068740E+00   2.314496200614340E+01
    S   4.810095810179160E+00   7.786194754373530E-01   2.317579976013080E+01
    S   3.175075495586100E+00   3.571336376436940E+00   2.314947673353330E+01
    S   1.582497140640220E+00   7.309791911915220E-01   5.813430907354540E+00
    S   1.553244044619270E-01   3.587751205400900E+00   5.956106638322030E+00
    S   4.881988857852380E+00   9.582652902275620E-01   5.703478458753340E+00
    S   3.026179904772330E+00   3.630378652753150E+00   5.975623634052130E+00
