 &control

     calculation = 'relax',

     restart_mode='from_scratch',

     tprnfor=.true.

     prefix='MoS2',

     outdir='./tmp',

     max_seconds = 84500

     disk_io = 'none'

     pseudo_dir = '~/pseudo/',

     nstep= 4

 /

 &system

    ibrav = 0,

    nat =  15
    ntyp = 2

    ecutwfc = 45 , ecutrho = 360,

    occupations='smearing', smearing='mv', degauss=0.02

/

  &electrons

     diagonalization='david',

     mixing_mode  =  'local-TF',

     mixing_beta = 0.7

   /

   &ions

     ion_dynamics = 'bfgs'

  /

   &cell

     cell_dynamics = 'bfgs',

   /

 ATOMIC_SPECIES

 Mo  95.5     Mo.pw91-n-van.UPF

 S   32.065   S.pw91-van_ak.UPF

K_POINTS {automatic}
  3  3  2 0 0 0
  
CELL_PARAMETERS (angstrom)
   6.676143897563200E+00   0.000000000000000E+00   0.000000000000000E+00
   6.817642527494620E-01   6.756348700833890E+00   0.000000000000000E+00
   3.666521410884050E+00   2.388849572119770E+00   8.572364742892089E+00
  
ATOMIC_POSITIONS (angstrom)
   Mo   4.847776572431930E+00   2.122017318004430E+00  -1.433858920843600E-01
   Mo   2.872894922160910E+00   4.575512782609070E+00   3.172856764600340E+00
   Mo   6.059823432390530E+00   4.333197425570290E+00   3.576028188477820E-01
   Mo   4.070313379874780E+00   3.061437347829020E+00   6.930371944938510E+00
   Mo   3.687139075872960E+00   7.676013102869400E+00   6.459629727479910E+00
    S   7.724578046300580E+00   4.302105228065000E+00   1.944581351552380E+00
    S   9.908976012717130E+00   8.981585308070450E+00   8.267105244943620E+00
    S   2.507964877327480E+00   6.561700404128460E+00   4.434382614449330E+00
    S   4.561861055300290E+00   3.295765816310200E+00   1.896799160430050E+00
    S   1.011854665054760E+01   5.419922823605310E+00   7.121594849571330E+00
    S   2.876049639156530E+00   2.909018183422980E+00   4.889885364314850E+00
    S   6.686100343828180E+00   2.807933685417940E+00   7.595398838965160E+00
    S   4.251161319998070E+00   5.788293296756830E+00   1.361590278100780E+00
    S   5.972620482519150E+00   7.632183376602460E+00   6.206159643082510E+00
    S   5.826353315318650E+00   5.080367342484890E+00   7.524479849404900E+00
