 &control

     calculation = 'scf',

     restart_mode='from_scratch',

     tprnfor=.true.

     prefix='MoS2',

     outdir='./tmp',

     max_seconds = 84500

     disk_io = 'none'

     pseudo_dir = '~/pseudo/',

 /

 &system

    ibrav = 0,

    nat =  36
    ntyp = 2

    ecutwfc = 45 , ecutrho = 360,

    occupations='smearing', smearing='mv', degauss=0.02

/

  &electrons

     diagonalization='david',

     mixing_mode  =  'local-TF',

     mixing_beta = 0.7

   /

   &ions

     ion_dynamics = 'bfgs'

  /

   &cell

     cell_dynamics = 'bfgs',

   /

 ATOMIC_SPECIES

 Mo  95.5     Mo.pw91-n-van.UPF

 S   32.065   S.pw91-van_ak.UPF

K_POINTS {automatic}
  3  3  1 0 0 0
  
CELL_PARAMETERS (angstrom)
   6.947151892016641E+00   0.000000000000000E+00   0.000000000000000E+00
  -3.367789451336065E+00   6.088120648952644E+00   0.000000000000000E+00
   3.032304867673741E+00  -3.505705758249236E+00   2.265427922891155E+01
  
ATOMIC_POSITIONS (angstrom)
   Mo   2.133007298653820E+00   3.233171193468700E-01   2.705704965914220E-01
   Mo   6.137157638087340E-01   3.276753430488740E+00   5.147108453377950E-01
   Mo   5.482528814803240E+00   2.166010078966620E-01   8.513475261438380E-02
   Mo   4.242134909603870E+00   3.272510585762500E+00   2.555992183718850E-01
   Mo   1.564971729839420E+00   7.050447558686080E-01   1.646047114175880E+01
   Mo   2.123329174345800E-01   3.915923521260000E+00   1.636801581781630E+01
   Mo   5.199001189815950E+00   8.808109118782870E-01   1.662991109490340E+01
   Mo   3.682317751141350E+00   3.623520830053100E+00   1.626900451299150E+01
   Mo   3.214657597723900E-01   1.086770984591370E+00   5.950702442954760E+00
   Mo  -1.432170720203050E+00   3.859340003759930E+00   5.981188868509900E+00
   Mo   3.728638571509460E+00   5.917563970386430E-01   5.837301356629080E+00
   Mo   2.152449886607130E+00   3.841359780966110E+00   5.894748663911210E+00
    S   9.113641252737550E-01   1.613360085038920E+00   1.570282070588440E+00
    S  -1.286734288433130E+00   4.444923360683410E+00   1.274897062654490E+00
    S   4.236651069154410E+00   1.483276984649510E+00   1.342278530026360E+00
    S   2.343833175761180E+00   4.450416766642230E+00   1.072352838450450E+00
    S   3.536401100044360E+00  -3.642996219510340E-01   1.740241377905850E+01
    S   1.911456232146600E+00   2.717339735398110E+00   1.738519614778480E+01
    S   7.029069393763630E+00  -1.171716485265820E-01   1.750460635736300E+01
    S   5.217099960293300E+00   2.709176765811370E+00   1.763381295907390E+01
    S   3.466585298498860E+00  -1.094982356000960E+00   7.051246651032950E+00
    S   1.874890600521030E+00   1.876131710312490E+00   6.898178748950940E+00
    S   6.993263618446630E+00  -1.396385243303110E+00   7.171410438093700E+00
    S   5.544690641155410E+00   1.825039151290470E+00   7.026676630327510E+00
    S   1.869873465720180E+00  -1.075476720201200E+00   2.184314428610610E+01
    S   1.331035353811330E-01   2.214775118907740E+00   2.193014481531830E+01
    S   5.286520312451030E+00  -1.134561900917390E+00   2.185639593711030E+01
    S   3.506673893100320E+00   1.964943645026600E+00   2.201440383884240E+01
    S   5.260237568301020E+00  -1.500471843432380E+00   1.533688459407120E+01
    S   3.704387763329990E+00   1.647032478444360E+00   1.543550604448650E+01
    S   8.616837961247290E+00  -1.367958441250210E+00   1.539490035662700E+01
    S   6.881926657149620E+00   1.674605497568500E+00   1.549411827791520E+01
    S   1.927852359741640E+00  -1.580907147244280E-01   4.976069567028830E+00
    S   1.573766795193040E-01   3.047399466028620E+00   4.828644843399880E+00
    S   5.333976099074130E+00  -2.228720018549140E-01   4.938942917487980E+00
    S   3.743903330168460E+00   3.062618074408270E+00   4.895385320791980E+00
