 &control

     calculation = 'scf',

     restart_mode='from_scratch',

     tprnfor=.true.

     prefix='MoS2',

     outdir='./tmp',

     max_seconds = 84500

     disk_io = 'none'

     pseudo_dir = '~/pseudo/',

 /

 &system

    ibrav = 0,

    nat =  24
    ntyp = 2

    ecutwfc = 45 , ecutrho = 360,

    occupations='smearing', smearing='mv', degauss=0.02

/

  &electrons

     diagonalization='david',

     mixing_mode  =  'local-TF',

     mixing_beta = 0.7

   /

   &ions

     ion_dynamics = 'bfgs'

  /

   &cell

     cell_dynamics = 'bfgs',

   /

 ATOMIC_SPECIES

 Mo  95.5     Mo.pw91-n-van.UPF

 S   32.065   S.pw91-van_ak.UPF

K_POINTS {automatic}
  3  3  1 0 0 0
  
CELL_PARAMETERS (angstrom)
   6.699663600000001E+00   0.000000000000000E+00   0.000000000000000E+00
  -3.349831800000000E+00   5.802077400000001E+00   0.000000000000000E+00
   0.000000000000000E+00   0.000000000000000E+00   1.562295420000000E+01
  
ATOMIC_POSITIONS (angstrom)
   Mo  -4.949906711133420E-02   2.037821100955330E+00   4.069374561951220E+00
   Mo  -1.497227257646790E+00   4.744967452747790E+00   3.888174411128830E+00
   Mo   3.271100931793770E+00   2.115176594475690E+00   3.937146417391060E+00
   Mo   1.651537680657950E+00   4.959311316958000E+00   4.060711147391000E+00
   Mo   1.578454398829850E+00   1.014067180197970E+00   1.154845351156450E+01
   Mo  -1.891320559046410E-01   3.814189301265930E+00   1.168078230248530E+01
   Mo   4.868701446779330E+00   9.511974295279250E-01   1.184130813810710E+01
   Mo   3.272759954616380E+00   4.043585593149880E+00   1.177419942163100E+01
    S   1.487792327666600E+00   1.026998218475670E+00   5.586093300495040E+00
    S  -5.105773247412760E-02   3.806996677155380E+00   5.365385933284470E+00
    S   4.915133132556310E+00   8.061145173146470E-01   5.594652515239880E+00
    S   3.421977440718770E+00   3.987618096704810E+00   5.692041398843630E+00
    S  -3.600335653113860E-02   2.013822531823400E+00   1.318052066916920E+01
    S  -1.504834252196010E+00   4.922912338617760E+00   1.330242540836970E+01
    S   3.350143103198660E+00   1.933755402343240E+00   1.316034466401650E+01
    S   1.659966553110110E+00   4.899545871736290E+00   1.354907378891480E+01
    S   1.865908290930980E+00   9.398576557074060E-01   2.315384879667990E+00
    S  -1.401343351127180E-01   3.985790452567520E+00   2.181992140771140E+00
    S   4.910045058372880E+00   9.214858589852000E-01   2.105224144920600E+00
    S   3.353394749184750E+00   3.871284943710890E+00   2.462552097997040E+00
    S  -3.854798265252240E-02   1.737776502854050E+00   1.007421346692370E+01
    S  -1.723269403101940E+00   4.960793686585670E+00   1.022191979312550E+01
    S   3.306817028785190E+00   2.123280265531640E+00   1.002578606244130E+01
    S   1.598870889087430E+00   4.962809807456940E+00   1.020787344146180E+01
