 &control

     calculation = 'scf',

     restart_mode='from_scratch',

     tprnfor=.true.

     prefix='MoS2',

     outdir='./tmp',

     max_seconds = 84500

     disk_io = 'none'

     pseudo_dir = '~/pseudo/',

 /

 &system

    ibrav = 0,

    nat =  12
    ntyp = 2

    ecutwfc = 45 , ecutrho = 360,

    occupations='smearing', smearing='mv', degauss=0.02

/

  &electrons

     diagonalization='david',

     mixing_mode  =  'local-TF',

     mixing_beta = 0.7

   /

   &ions

     ion_dynamics = 'bfgs'

  /

   &cell

     cell_dynamics = 'bfgs',

   /

 ATOMIC_SPECIES

 Mo  95.5     Mo.pw91-n-van.UPF

 S   32.065   S.pw91-van_ak.UPF

K_POINTS {automatic}
  3  3  1 0 0 0
  
CELL_PARAMETERS (angstrom)
   6.502360704426630E+00   0.000000000000000E+00   0.000000000000000E+00
   3.300809149319990E+00   5.539269606290760E+00   0.000000000000000E+00
  -3.071502503704600E-01   4.483053941326660E+00   1.660410994364230E+01
  
ATOMIC_POSITIONS (angstrom)
   Mo   3.331636093163600E+00   5.521434449842400E+00   5.853028974764530E-02
   Mo   6.630192151269660E+00   5.577830185305110E+00   6.978482034226360E-02
   Mo   4.581958691977100E+00   7.287148577164550E+00   1.667628097748260E+01
   Mo   1.662239231785290E+00   2.762551794900670E+00   4.948613977892680E-02
    S   1.367601763389690E+00   5.351917390209200E+00   1.504908113871850E+01
    S   4.590912374995010E+00   5.406192503999660E+00   1.509493774188580E+01
    S   6.207881871022050E+00   8.153296230234879E+00   1.511666258912510E+01
    S   2.912533727700550E+00   8.110481918632530E+00   1.506807882356610E+01
    S   1.686388049293470E+00   9.405258618178420E-01   1.640311266988560E+00
    S   4.943759222288330E+00   9.423489360118590E-01   1.628681649318420E+00
    S   6.592590865986890E+00   3.731234526759120E+00   1.600242809865930E+00
    S   3.276001893912390E+00   3.702655892299400E+00   1.638920157440310E+00
