 &control

     calculation = 'scf',

     restart_mode='from_scratch',

     tprnfor=.true.

     prefix='MoS2',

     outdir='./tmp',

     max_seconds = 84500

     disk_io = 'none'

     pseudo_dir = '~/pseudo/',

 /

 &system

    ibrav = 0,

    nat =  36
    ntyp = 2

    ecutwfc = 45 , ecutrho = 360,

    occupations='smearing', smearing='mv', degauss=0.02

/

  &electrons

     diagonalization='david',

     mixing_mode  =  'local-TF',

     mixing_beta = 0.7

   /

   &ions

     ion_dynamics = 'bfgs'

  /

   &cell

     cell_dynamics = 'bfgs',

   /

 ATOMIC_SPECIES

 Mo  95.5     Mo.pw91-n-van.UPF

 S   32.065   S.pw91-van_ak.UPF

K_POINTS {automatic}
  3  3  1 0 0 0
  
CELL_PARAMETERS (angstrom)
   6.062223599999999E+00   0.000000000000000E+00   0.000000000000000E+00
  -3.031111800000000E+00   5.250040100000000E+00   0.000000000000000E+00
   0.000000000000000E+00   0.000000000000000E+00   2.025229000000000E+01
  
ATOMIC_POSITIONS (angstrom)
   Mo   1.591120473429070E+00   8.957943095466410E-01   6.808353625643100E+00
   Mo  -2.502586375357690E-02   3.572727033321720E+00   6.810179116377500E+00
   Mo   4.507325198759540E+00   9.636630709296370E-01   6.721910543231190E+00
   Mo   3.038298266259290E+00   3.497842481347980E+00   6.646522673771100E+00
   Mo  -8.600710541992360E-02   1.708208657317760E+00   1.352626320997800E+01
   Mo  -1.437212946386830E+00   4.400664528752880E+00   1.344040236100960E+01
   Mo   3.118951648702130E+00   1.725448361695980E+00   1.353800998864830E+01
   Mo   1.548180441677590E+00   4.383961865533110E+00   1.359112262320260E+01
   Mo  -9.095344560807420E-02   3.283907578739950E-02   2.027325050979740E+01
   Mo  -1.476139874890420E+00   2.595678984478380E+00   2.033486839380790E+01
   Mo   3.112326216839870E+00   3.098436522009350E-02   2.029721246513550E+01
   Mo   1.423932632463110E+00   2.618118946813420E+00   2.020830791081120E+01
    S   4.902158637446430E-02   1.787977276336370E+00   1.560965404239800E+00
    S  -1.536458937295930E+00   4.383798771693190E+00   1.579905823922930E+00
    S   3.039855573588790E+00   1.769352749769090E+00   1.384786374396850E+00
    S   1.589217811066190E+00   4.374442939760770E+00   1.414881585416870E+00
    S  -2.158301066834820E-03   5.486261478054410E-02   5.175697769303370E+00
    S  -1.579570430575360E+00   2.684576871263640E+00   5.307806314780770E+00
    S   3.110194770428660E+00   5.904685844920930E-02   5.275381104027300E+00
    S   1.549735687449870E+00   2.620485600261540E+00   5.165408794868020E+00
    S  -1.649826085621230E-03  -6.281219380121980E-03   8.133475816183299E+00
    S  -1.560922334644370E+00   2.668213406827730E+00   8.155314599475870E+00
    S   3.089809521130340E+00   2.530129182636210E-02   8.310169995632050E+00
    S   1.476433971864270E+00   2.611583367069910E+00   8.142221152550670E+00
    S   1.430004592757570E+00   8.874357863404920E-01   1.206029468627350E+01
    S   9.211716296920370E-03   3.409968793747990E+00   1.196754918493190E+01
    S   4.540031383621830E+00   7.815906473742070E-01   1.204509816351900E+01
    S   3.049194885305030E+00   3.523707550853030E+00   1.210549129171550E+01
    S   1.513752806146780E+00   8.724169904716110E-01   1.488407110308790E+01
    S  -3.367540400437310E-02   3.487023512741280E+00   1.489076464059460E+01
    S   4.574300071547290E+00   7.847647626693700E-01   1.501708320141390E+01
    S   3.073893890444170E+00   3.518280855524260E+00   1.507254574343720E+01
    S   6.226456116412160E-02   1.785472976578630E+00   1.869105615102750E+01
    S  -1.529101213941400E+00   4.472229797938440E+00   1.878003506295430E+01
    S   3.038348816509490E+00   1.759693792989460E+00   1.886007696519440E+01
    S   1.488119452837760E+00   4.373469285869810E+00   1.866465982845950E+01
