 &control

     calculation = 'relax',

     restart_mode='from_scratch',

     tprnfor=.true.

     prefix='MoS2',

     outdir='./tmp',

     max_seconds = 84500

     disk_io = 'none'

     pseudo_dir = '~/pseudo/',

     nstep= 4

 /

 &system

    ibrav = 0,

    nat =  36
    ntyp = 2

    ecutwfc = 45 , ecutrho = 360,

    occupations='smearing', smearing='mv', degauss=0.02

/

  &electrons

     diagonalization='david',

     mixing_mode  =  'local-TF',

     mixing_beta = 0.7

   /

   &ions

     ion_dynamics = 'bfgs'

  /

   &cell

     cell_dynamics = 'bfgs',

   /

 ATOMIC_SPECIES

 Mo  95.5     Mo.pw91-n-van.UPF

 S   32.065   S.pw91-van_ak.UPF

K_POINTS {automatic}
  3  3  1 0 0 0
  
CELL_PARAMETERS (angstrom)
   6.449430519024180E+00   0.000000000000000E+00   0.000000000000000E+00
   3.199238402302110E+00   5.587563419165730E+00   0.000000000000000E+00
   1.229908806827550E+00  -5.964695437827250E-01   2.183072473028190E+01
  
ATOMIC_POSITIONS (angstrom)
   Mo   8.466160650309350E+00   5.030800973288680E+00   7.902513858515560E+00
   Mo   6.752265399083280E+00   2.250779634449450E+00   7.865875809712540E+00
   Mo   3.585721368496650E+00   2.284297171484460E+00   7.730344805589440E+00
   Mo   5.155117568497790E+00   5.021387814593200E+00   8.015052638121150E+00
   Mo   8.121074627200240E+00   5.436350958088720E+00   1.449983411704090E+01
   Mo   6.452560971725960E+00   2.529902323648290E+00   1.478921530100150E+01
   Mo   3.311011171946820E+00   2.595109162135840E+00   1.487810814170510E+01
   Mo   4.876361550476780E+00   5.362773305627950E+00   1.474727481002450E+01
   Mo   2.072676229979470E+00  -5.080135182103530E-01   2.108581635500370E+01
   Mo   3.602336066141700E+00   2.393880455487290E+00   2.118362950505780E+01
   Mo   6.795464539100360E+00   2.236253819347220E+00   2.095047573616220E+01
   Mo   5.183916578436220E+00  -4.061335104231920E-01   2.096092511235650E+01
    S   8.765584275949671E+00   4.932813605094310E+00   8.028638694804220E-01
    S   7.150114225124880E+00   1.991718131975780E+00   7.926501882237120E-01
    S   4.021654458061600E+00   1.973117759396310E+00   8.048333087015430E-01
    S   5.680637963054400E+00   4.680751012812670E+00   7.436480975188900E-01
    S   3.643924160594890E+00   4.214776115747880E+00   6.256549543213550E+00
    S   1.913536109517530E+00   1.235853119240270E+00   6.333343167247840E+00
    S   5.218868189773260E+00   1.275187450236960E+00   6.259337272918210E+00
    S   6.771128224432300E+00   4.169185484036150E+00   6.367430226298840E+00
    S   3.529885214485380E+00   4.013682491744520E+00   9.504979624084831E+00
    S   1.988485316370050E+00   1.427054739216910E+00   9.422282816336709E+00
    S   5.114214486244400E+00   1.351060327880390E+00   9.439232442074131E+00
    S   6.839426690463670E+00   4.093226090383140E+00   9.502665385422461E+00
    S   4.847666286477580E+00   1.813878130317090E+00   1.308725932850990E+01
    S   6.452315023155380E+00   4.379118658967900E+00   1.314706498858290E+01
    S   3.369774248697890E+00   4.361895013797530E+00   1.313350935613010E+01
    S   1.731026193238000E+00   1.702679005399650E+00   1.323538966552550E+01
    S   4.910084964836030E+00   1.462203577489710E+00   1.636451969150850E+01
    S   6.629968133800480E+00   4.506262966021850E+00   1.622635866715970E+01
    S   9.586880382212730E+00   4.576057683361280E+00   1.628846509260810E+01
    S   8.079851892389881E+00   1.619730081257580E+00   1.635382603076300E+01
    S   1.009219347270120E+01   4.179845017135760E+00   1.949670157215660E+01
    S   8.586292666833730E+00   1.366046669811720E+00   1.951363843433070E+01
    S   5.060152845025900E+00   1.500868889877050E+00   1.938953302147960E+01
    S   6.794516354561620E+00   4.148801365536550E+00   1.941457258533040E+01
