 &control

     calculation = 'scf',

     restart_mode='from_scratch',

     tprnfor=.true.

     prefix='MoS2',

     outdir='./tmp',

     max_seconds = 84500

     disk_io = 'none'

     pseudo_dir = '~/pseudo/',

 /

 &system

    ibrav = 0,

    nat =  24
    ntyp = 2

    ecutwfc = 45 , ecutrho = 360,

    occupations='smearing', smearing='mv', degauss=0.02

/

  &electrons

     diagonalization='david',

     mixing_mode  =  'local-TF',

     mixing_beta = 0.7

   /

   &ions

     ion_dynamics = 'bfgs'

  /

   &cell

     cell_dynamics = 'bfgs',

   /

 ATOMIC_SPECIES

 Mo  95.5     Mo.pw91-n-van.UPF

 S   32.065   S.pw91-van_ak.UPF

K_POINTS {automatic}
  3  3  2 0 0 0
  
CELL_PARAMETERS (angstrom)
   6.421221076744668E+00   0.000000000000000E+00   0.000000000000000E+00
  -3.046064824315088E+00   5.599143385653713E+00   0.000000000000000E+00
   1.149181235306253E-01  -7.584950941487460E-02   1.133529462077278E+01
  
ATOMIC_POSITIONS (angstrom)
   Mo   2.191101765363530E-01   1.770248724263110E+00   3.082980759709610E+00
   Mo  -1.186044966238340E+00   4.727522875099880E+00   2.420870383781450E+00
   Mo   3.429332851154300E+00   1.869834404191910E+00   2.676867191210660E+00
   Mo   1.930812703569040E+00   4.475508282533520E+00   3.540230760482360E+00
   Mo   1.443912546337440E+00   8.522540639138410E-01   8.725975667729180E+00
   Mo  -7.007697429670059E-02   3.646944208202120E+00   8.523054263099580E+00
   Mo   4.739405718659030E+00   9.059294956171060E-01   8.197340138992860E+00
   Mo   3.186453749932770E+00   3.712253488660100E+00   8.220312318047149E+00
    S   1.902220844856730E+00   5.709558427491540E-01   3.884854113864060E+00
    S   2.690893606219050E-01   3.442836845404320E+00   4.235321084343160E+00
    S   5.202631148364990E+00   7.894150942056249E-01   4.161363759218360E+00
    S   3.405281698503490E+00   3.279250399449180E+00   4.165371930665560E+00
    S  -2.724355690610250E-01   1.703354881324190E+00   9.663540230048900E+00
    S  -1.799564506032010E+00   4.491981010202960E+00   9.661262565368361E+00
    S   3.018484021791690E+00   1.780882413704420E+00   9.510676612883790E+00
    S   1.477555010398280E+00   4.546907459941050E+00   9.443421944640750E+00
    S   1.775020946225730E+00   9.328821611460530E-01   1.519297580772890E+00
    S   6.444324984568510E-01   4.059502068452860E+00   1.893895131038690E+00
    S   5.120679594105640E+00   1.490164046550040E+00   1.756138590008210E+00
    S   3.418866899947010E+00   3.870281375441320E+00   1.803047750930740E+00
    S   2.377118100440680E-01   1.899771722011300E+00   7.350785790588650E+00
    S  -1.329465247341340E+00   4.750753894891700E+00   7.345614642777670E+00
    S   3.473934827668220E+00   2.025857270557450E+00   7.131013917058130E+00
    S   1.910935065492780E+00   4.816914448834180E+00   7.063845322050310E+00
