 &control

     calculation = 'scf',

     restart_mode='from_scratch',

     tprnfor=.true.

     prefix='MoS2',

     outdir='./tmp',

     max_seconds = 84500

     disk_io = 'none'

     pseudo_dir = '~/pseudo/',

 /

 &system

    ibrav = 0,

    nat =  12
    ntyp = 2

    ecutwfc = 45 , ecutrho = 360,

    occupations='smearing', smearing='mv', degauss=0.02

/

  &electrons

     diagonalization='david',

     mixing_mode  =  'local-TF',

     mixing_beta = 0.7

   /

   &ions

     ion_dynamics = 'bfgs'

  /

   &cell

     cell_dynamics = 'bfgs',

   /

 ATOMIC_SPECIES

 Mo  95.5     Mo.pw91-n-van.UPF

 S   32.065   S.pw91-van_ak.UPF

K_POINTS {automatic}
  3  3  1 0 0 0
  
CELL_PARAMETERS (angstrom)
   7.254396364630147E+00   0.000000000000000E+00   0.000000000000000E+00
  -4.068566427901878E+00   5.880370192726044E+00   0.000000000000000E+00
   1.569808518456535E+00   6.059623782597648E-01   1.616371467148079E+01
  
ATOMIC_POSITIONS (angstrom)
   Mo   2.849475463596010E-02  -5.012143840392290E-01  -5.207031930487950E-02
   Mo  -2.253650075573810E+00   2.546606131988930E+00  -3.923177154945390E-02
   Mo   3.864426808664420E+00  -4.962497660175410E-01   3.088354504531210E-02
   Mo   1.339670349033100E+00   2.493477986858330E+00   1.833946506582380E-01
    S  -2.988758676643490E-01   3.417822871645520E+00   1.201944635656740E+00
    S  -2.119358755088000E+00   6.408899041463790E+00   5.745249295406980E-01
    S   3.295725628415300E+00   3.417542293762940E+00   8.445619307010230E-01
    S   1.557082838669250E+00   6.180656216362420E+00   1.165592910660640E+00
    S   1.271759227044150E+00   2.120821464128230E+00   1.541269303962980E+01
    S  -5.898924350944380E-01   5.084346761330650E+00   1.513553924247830E+01
    S   5.741288252445970E+00   1.915885509849310E+00   1.491774067071260E+01
    S   3.016931883077320E+00   5.001868725007020E+00   1.515630911684480E+01
