 &control

     calculation = 'scf',

     restart_mode='from_scratch',

     tprnfor=.true.

     prefix='MoS2',

     outdir='./tmp',

     max_seconds = 84500

     disk_io = 'none'

     pseudo_dir = '~/pseudo/',

 /

 &system

    ibrav = 0,

    nat =  15
    ntyp = 2

    ecutwfc = 45 , ecutrho = 360,

    occupations='smearing', smearing='mv', degauss=0.02

/

  &electrons

     diagonalization='david',

     mixing_mode  =  'local-TF',

     mixing_beta = 0.7

   /

   &ions

     ion_dynamics = 'bfgs'

  /

   &cell

     cell_dynamics = 'bfgs',

   /

 ATOMIC_SPECIES

 Mo  95.5     Mo.pw91-n-van.UPF

 S   32.065   S.pw91-van_ak.UPF

K_POINTS {automatic}
  5  2  2 0 0 0
  
CELL_PARAMETERS (angstrom)
   3.402570138830129E+00   0.000000000000000E+00   0.000000000000000E+00
  -1.643987675922417E-02   1.104894336668301E+01   0.000000000000000E+00
  -7.596977146575182E-01  -9.381746942904793E-01   1.112563960512901E+01
  
ATOMIC_POSITIONS (angstrom)
   Mo   1.985444587119640E-01   8.496221816253261E+00   8.671225521799010E-01
   Mo   2.064507641772030E-01   3.450611341854180E+00   3.786264148990580E-01
   Mo   1.914477802300960E+00   4.022602299847240E-01   8.578804039172400E-01
   Mo   1.979520694829030E+00   2.968876774313880E+00   3.968362623725940E+00
   Mo   1.898806008913500E+00   6.154323034794920E+00   2.677562342905810E+00
    S   1.139980313265930E+00   8.642755212448810E+00   1.105492173532780E+01
    S   1.978635690030260E-01   1.046047460191200E+01   1.862350756014950E+00
    S   1.149735567676570E+00   3.027485854279080E+00   1.059598851217500E+01
    S   2.897917559665890E-01   2.191082262146160E+00   4.678313465905680E+00
    S   1.915372190983670E+00   4.945946284124790E+00   4.306657559843480E+00
    S  -5.453909389399880E-01   3.934054282200160E-01   1.104680432169200E+01
    S   1.988500670916560E-01   7.496815727816390E+00   2.826873080919860E+00
    S   1.924858237027570E+00   2.348758002617100E+00   1.900481802090610E+00
    S   1.900492131538830E+00   7.157949195632960E+00   7.355649273543490E-01
    S   2.002030953448170E-01   4.847264253575820E+00   1.968081391876590E+00
