 &control

     calculation = 'relax',

     restart_mode='from_scratch',

     tprnfor=.true.

     prefix='MoS2',

     outdir='./tmp',

     max_seconds = 84500

     disk_io = 'none'

     pseudo_dir = '~/pseudo/',

     nstep= 4

 /

 &system

    ibrav = 0,

    nat =  24
    ntyp = 2

    ecutwfc = 45 , ecutrho = 360,

    occupations='smearing', smearing='mv', degauss=0.02

/

  &electrons

     diagonalization='david',

     mixing_mode  =  'local-TF',

     mixing_beta = 0.7

   /

   &ions

     ion_dynamics = 'bfgs'

  /

   &cell

     cell_dynamics = 'bfgs',

   /

 ATOMIC_SPECIES

 Mo  95.5     Mo.pw91-n-van.UPF

 S   32.065   S.pw91-van_ak.UPF

K_POINTS {automatic}
  3  3  1 0 0 0
  
CELL_PARAMETERS (angstrom)
   6.476428932211660E+00   0.000000000000000E+00   0.000000000000000E+00
   3.269154512611660E+00   5.582068895181550E+00   0.000000000000000E+00
   2.391106216616900E+00  -2.701204615863470E-01   1.671163084736390E+01
  
ATOMIC_POSITIONS (angstrom)
   Mo   3.414333131001640E+00  -1.187040049901530E-01   1.343390291974290E+01
   Mo   8.202139599792639E+00   2.716009762200250E+00   1.353178933577540E+01
   Mo   6.596378127717170E+00  -2.051767631752820E-01   1.338271720364930E+01
   Mo   4.955854805744880E+00   2.667589334375910E+00   1.324473660944470E+01
   Mo   8.740200830745700E+00   5.536181940297900E+00   3.165086849197270E+00
   Mo   3.773493041304440E+00   2.435570150995590E+00   3.497904048464340E+00
   Mo   5.630898631002000E+00   5.520716755251440E+00   3.298729286225690E+00
   Mo   7.226960022556660E+00   2.627413148809680E+00   3.096351601377270E+00
    S   5.049699586616810E+00   8.823590635088350E-01   1.494393599760530E+01
    S   9.942804196589419E+00   3.549263724679030E+00   1.502488099752430E+01
    S   8.192273579329299E+00   7.613140230989800E-01   1.498383577794190E+01
    S   6.443253057051340E+00   3.610345662192520E+00   1.497989837312890E+01
    S   5.392349059533300E+00   1.880111522867260E+00   1.667533754417720E+00
    S   4.006528305872650E+00   4.331328273330070E+00   1.904928087756470E+00
    S   2.401968654961200E+00   1.676378659676820E+00   1.582990849879370E+00
    S   7.146057026440110E+00   4.570555383395950E+00   1.587693617893770E+00
    S   5.681417691094510E+00   1.708448274001820E+00   4.810132689017940E+00
    S   3.878340564547660E+00   4.542185608298440E+00   4.730892790205090E+00
    S   2.043861889400220E+00   1.638411778221480E+00   5.012796375978450E+00
    S   7.250858822971770E+00   4.444260426757210E+00   4.750454445825850E+00
    S   5.017370663022600E+00   7.347138830575730E-01   1.177982985851000E+01
    S   9.715472083993870E+00   3.553436057535660E+00   1.178410337955280E+01
    S   8.257185950639590E+00   8.645350041926380E-01   1.193185209508680E+01
    S   6.690973678134800E+00   3.626682698375760E+00   1.183796583321280E+01
