 &control

     calculation = 'scf',

     restart_mode='from_scratch',

     tprnfor=.true.

     prefix='MoS2',

     outdir='./tmp',

     max_seconds = 84500

     disk_io = 'none'

     nstep= 25

     pseudo_dir = '~/pseudo/',

 /

 &system

    ibrav = 0,

    nat =  24
    ntyp = 2

    ecutwfc = 45 , ecutrho = 360,

    occupations='smearing', smearing='mv', degauss=0.02

/

  &electrons

     diagonalization='david',

     mixing_mode  =  'local-TF',

     mixing_beta = 0.7

   /

   &ions

     ion_dynamics = 'bfgs'

  /

   &cell

     cell_dynamics = 'bfgs',

   /

 ATOMIC_SPECIES

 Mo  95.5     Mo.pw91-n-van.UPF

 S   32.065   S.pw91-van_ak.UPF

K_POINTS {automatic}
  3  3  2 0 0 0
  
CELL_PARAMETERS (angstrom)
   6.791855183958750E+00   0.000000000000000E+00   0.000000000000000E+00
   3.365897252670180E+00   6.180960877865360E+00   0.000000000000000E+00
   9.010078092071460E-01   1.148058035604450E+00   1.275048121045720E+01
  
ATOMIC_POSITIONS (angstrom)
   Mo   4.133468801092460E+00   5.808854922633680E+00   4.183315223986640E-01
   Mo   9.451723113723871E+00   5.343430195639350E+00   2.765170895300590E+00
   Mo   4.493546022737290E+00   4.796486021692130E+00   9.870328471932840E+00
   Mo   2.500968990873560E+00   3.443719991811320E+00   5.493014131417400E-01
   Mo   4.317588924922540E+00   5.670659765595430E+00   7.165970769055760E+00
   Mo   7.781819891834430E+00   5.817299580706200E+00   5.004003491850390E-01
   Mo   6.918060658304780E+00   5.471378890996870E+00   9.065488207258239E+00
   Mo   5.967078650960870E+00   3.363515029652270E+00   7.485487539678260E+00
    S   4.002379265856560E+00   3.187568849110420E+00   6.551950954332670E+00
    S   7.381654173653330E+00   1.925580286276740E+00   6.485860683488570E+00
    S   5.174188809131000E+00   6.967000663400270E+00   9.068114128375701E+00
    S   9.216564192915859E+00   5.576997049629560E+00   5.230069285411020E+00
    S   1.024600008435010E+01   6.251515097523500E+00   1.157120674012550E+01
    S   7.574712275448160E+00   4.070995902401240E+00   2.086266738612880E+00
    S   9.263653555178809E+00   4.943779588346950E+00   8.654847928911110E+00
    S   6.708685163138440E+00   5.433405812512110E+00   6.741312371183430E+00
    S   6.926236745326380E+00   5.999341965673180E+00   1.181159754081420E+01
    S   4.355537271940970E+00   3.972812369262780E+00   1.927810432508270E+00
    S   6.471149639054600E+00   3.292690157915670E+00   9.754381748122571E+00
    S   4.387916038789790E+00   5.834666017525220E+00   4.490108887873220E+00
    S   2.112173618298780E+00   2.930172345130320E+00   1.186204307366580E+01
    S   5.980797693471520E+00   1.107723481605810E+00   1.534991709072440E+00
    S   4.290858431336850E+00   2.804157812323540E+00   1.164266767442300E+01
    S   2.590621814132560E+00   1.007027796316970E+00   1.581155686887930E+00
