 &control

     calculation = 'scf',

     restart_mode='from_scratch',

     tprnfor=.true.

     prefix='MoS2',

     outdir='./tmp',

     max_seconds = 84500

     disk_io = 'none'

     pseudo_dir = '~/pseudo/',

 /

 &system

    ibrav = 0,

    nat =  12
    ntyp = 2

    ecutwfc = 45 , ecutrho = 360,

    occupations='smearing', smearing='mv', degauss=0.02

/

  &electrons

     diagonalization='david',

     mixing_mode  =  'local-TF',

     mixing_beta = 0.7

   /

   &ions

     ion_dynamics = 'bfgs'

  /

   &cell

     cell_dynamics = 'bfgs',

   /

 ATOMIC_SPECIES

 Mo  95.5     Mo.pw91-n-van.UPF

 S   32.065   S.pw91-van_ak.UPF

K_POINTS {automatic}
  3  3  1 0 0 0
  
CELL_PARAMETERS (angstrom)
   6.540145750000000E+00   0.000000000000000E+00   0.000000000000000E+00
  -3.270073900000000E+00   5.663932700000000E+00   0.000000000000000E+00
   0.000000000000000E+00   0.000000000000000E+00   1.787548955000000E+01
  
ATOMIC_POSITIONS (angstrom)
   Mo   3.469689462791870E-02  -1.943919894467650E-01   3.174712494239460E-02
   Mo  -1.570793402415620E+00   2.708811279008560E+00  -1.438943886427310E-01
   Mo   3.442807743186230E+00   5.039611528670320E-02   8.730920270335291E-02
   Mo   1.624902392082850E+00   2.803211597231730E+00  -1.976625298427930E-01
    S   7.491351203463960E-02   1.891630475951920E+00   1.789406590885900E+00
    S  -1.769733873973320E+00   4.638008404567310E+00   1.480943734072010E+00
    S   3.143067880796810E+00   2.030760957812520E+00   1.544983039198560E+00
    S   1.572651602538860E+00   4.529942278670910E+00   1.601271802968200E+00
    S   1.601516884197670E-01   1.856300329211910E+00   1.615595562196840E+01
    S  -1.669055661310210E+00   4.526119409984740E+00   1.630718705220520E+01
    S   3.300465690736890E+00   1.835248512774250E+00   1.646200043590170E+01
    S   1.611914841369190E+00   4.713878611011660E+00   1.607291948928060E+01
