 &control

     calculation = 'scf',

     restart_mode='from_scratch',

     tprnfor=.true.

     prefix='MoS2',

     outdir='./tmp',

     max_seconds = 84500

     disk_io = 'none'

     pseudo_dir = '~/pseudo/',

 /

 &system

    ibrav = 0,

    nat =  24
    ntyp = 2

    ecutwfc = 45 , ecutrho = 360,

    occupations='smearing', smearing='mv', degauss=0.02

/

  &electrons

     diagonalization='david',

     mixing_mode  =  'local-TF',

     mixing_beta = 0.7

   /

   &ions

     ion_dynamics = 'bfgs'

  /

   &cell

     cell_dynamics = 'bfgs',

   /

 ATOMIC_SPECIES

 Mo  95.5     Mo.pw91-n-van.UPF

 S   32.065   S.pw91-van_ak.UPF

K_POINTS {automatic}
  3  5  1 0 0 0
  
CELL_PARAMETERS (angstrom)
   6.839240237879652E+00   0.000000000000000E+00   0.000000000000000E+00
  -1.726916447956152E+00   2.948182869967559E+00   0.000000000000000E+00
  -1.572276472629338E+00   7.880061220315131E-01   2.388434444888163E+01
  
ATOMIC_POSITIONS (angstrom)
   Mo   1.803406254390050E-01   1.404479089137420E+00   8.936760466034009E+00
   Mo  -1.601296377318880E+00   1.609875793926470E+00   2.117287406882010E+01
   Mo   3.582318634561440E+00   1.295774291713280E+00   8.532413079452390E+00
   Mo   1.840494337422700E+00   1.668663608925700E+00   2.114058422103130E+01
   Mo  -2.933040963146560E-01  -8.920765142515650E-01   3.176261668494230E+00
   Mo  -1.420834160301940E+00  -5.624151638547610E-01   1.510541555581950E+01
   Mo   3.100227405009860E+00  -8.788785666582820E-01   2.866785177217530E+00
   Mo   1.973883745137040E+00  -6.014591674967660E-01   1.462331046183360E+01
    S   2.015938032662450E+00   2.386806760011960E+00   9.705633206965381E+00
    S   3.547940025518280E-02   2.621140409846060E+00   2.218162679379420E+01
    S   5.466460635887510E+00   2.443411093333320E+00   9.822264697790930E+00
    S   3.319022703251420E+00   2.662782332553260E+00   2.219875968729520E+01
    S  -3.308479368918480E-01   1.024207207956690E+00   2.003236573694780E+00
    S  -1.466300470375510E+00   1.504668441793210E+00   1.384868797622610E+01
    S   3.133934312344420E+00   1.030339366491160E+00   1.967301069254750E+00
    S   2.007359582376230E+00   1.502410037455680E+00   1.379519704758780E+01
    S  -3.015213865090540E-01   2.989792457347930E+00   4.012772230564600E+00
    S  -1.439354019138410E+00   3.473893818600670E+00   1.585553412545320E+01
    S   3.089996298932230E+00   2.976238809154860E+00   4.068995404614000E+00
    S   1.981153599499200E+00   3.445009697924900E+00   1.596007321307500E+01
    S   2.096369579260540E+00   2.738298263483900E-01   7.666675545121550E+00
    S  -5.154834422597590E-02   5.894285919797820E-01   2.016953081195640E+01
    S   5.426922496471800E+00   4.348927387372000E-01   7.700428408150920E+00
    S   3.392402997770600E+00   7.467825798255930E-01   2.008398499315360E+01
