 &control

     calculation = 'scf',

     restart_mode='from_scratch',

     tprnfor=.true.

     prefix='MoS2',

     outdir='./tmp',

     max_seconds = 84500

     disk_io = 'none'

     pseudo_dir = '~/pseudo/',

 /

 &system

    ibrav = 0,

    nat =  24
    ntyp = 2

    ecutwfc = 45 , ecutrho = 360,

    occupations='smearing', smearing='mv', degauss=0.02

/

  &electrons

     diagonalization='david',

     mixing_mode  =  'local-TF',

     mixing_beta = 0.7

   /

   &ions

     ion_dynamics = 'bfgs'

  /

   &cell

     cell_dynamics = 'bfgs',

   /

 ATOMIC_SPECIES

 Mo  95.5     Mo.pw91-n-van.UPF

 S   32.065   S.pw91-van_ak.UPF

K_POINTS {automatic}
  3  5  1 0 0 0
  
CELL_PARAMETERS (angstrom)
   6.682646932192401E+00   0.000000000000000E+00   0.000000000000000E+00
  -1.622151264276767E+00   2.995995107314389E+00   0.000000000000000E+00
  -4.935920021227208E-01   2.008569161725811E+00   2.368655288531386E+01
  
ATOMIC_POSITIONS (angstrom)
   Mo   1.343881130488150E+00   1.869474898918280E+00   3.026290822053570E+00
   Mo  -1.052244855213400E+00   2.572521552726360E+00   1.493462802887720E+01
   Mo   4.889582562051830E+00   1.782310074591480E+00   3.380389795723790E+00
   Mo   2.355149659754410E+00   2.539656325702530E+00   1.558876637797410E+01
   Mo   9.865658292528390E-01   2.335171472804810E+00   8.391556668525491E+00
   Mo   9.901618618591920E-01   3.338282542107370E+00   2.077318318628980E+01
   Mo   4.258649595591540E+00   2.330357655732610E+00   8.184541291691760E+00
   Mo   4.367866787237320E+00   3.337373964773290E+00   2.031639628535820E+01
    S   3.325196871329820E+00   2.801992526913620E+00   4.290947157462400E+00
    S   7.620874255201880E-01   3.539307179329660E+00   1.647259778054520E+01
    S   6.417345437548710E+00   2.818053403048290E+00   4.242222377451950E+00
    S   4.135552591657780E+00   3.676878918201270E+00   1.628052139764390E+01
    S  -6.700743339536031E-01   3.202476558808970E+00   9.341621598067190E+00
    S  -6.961158247093270E-01   4.430540493844860E+00   2.168214657663890E+01
    S   2.663538068690690E+00   3.211257883136720E+00   9.338986622011060E+00
    S   2.714195670678080E+00   4.197756319680200E+00   2.161695196973250E+01
    S   3.028425735404680E+00   8.083435178161210E-01   2.187555481674610E+00
    S   7.913345014800200E-01   1.578643241826810E+00   1.419715495156260E+01
    S   6.424174702051440E+00   8.830550472654520E-01   2.135306776101540E+00
    S   3.979536314713270E+00   1.641176247894740E+00   1.430456581533670E+01
    S  -7.127890264560570E-01   1.218895976987760E+00   7.334298209356970E+00
    S  -6.923541396056880E-01   2.360057864296540E+00   1.949196313034800E+01
    S   2.641122109403980E+00   1.254722771193900E+00   7.345330437530580E+00
    S   2.680057406966830E+00   2.239573379646600E+00   1.953117097058330E+01
