 &control

     calculation = 'scf',

     restart_mode='from_scratch',

     tprnfor=.true.

     prefix='MoS2',

     outdir='./tmp',

     max_seconds = 84500

     disk_io = 'none'

     nstep= 12

     pseudo_dir = '~/pseudo/',

 /

 &system

    ibrav = 0,

    nat =  42
    ntyp = 2

    ecutwfc = 45 , ecutrho = 360,

    occupations='smearing', smearing='mv', degauss=0.02

/

  &electrons

     diagonalization='david',

     mixing_mode  =  'local-TF',

     mixing_beta = 0.7

   /

   &ions

     ion_dynamics = 'bfgs'

  /

   &cell

     cell_dynamics = 'bfgs',

   /

 ATOMIC_SPECIES

 Mo  95.5     Mo.pw91-n-van.UPF

 S   32.065   S.pw91-van_ak.UPF

K_POINTS {automatic}
  2  2  2 0 0 0
  
CELL_PARAMETERS (angstrom)
   1.007344330550980E+01   0.000000000000000E+00   0.000000000000000E+00
   5.369150166608160E+00   1.069413135416470E+01   0.000000000000000E+00
   4.792158992922120E+00   4.479168038673160E+00   1.137864119620070E+01
  
ATOMIC_POSITIONS (angstrom)
   Mo   1.375929257492550E+01   8.896921259024690E+00   9.439233992678290E+00
   Mo   1.615172928612760E+01   1.058814139739720E+01   1.014032503179210E+01
   Mo   9.233069585674111E+00   5.888518954885390E+00   6.220772195031520E-01
   Mo   7.634004436910920E+00   1.826794205033130E+00   4.636453397958370E+00
   Mo   6.342466641022550E+00   4.314928368365010E+00   5.734706379292490E+00
   Mo   7.695702865704870E+00   5.849300834988360E+00   7.680882486599970E+00
   Mo   5.570360537125120E+00   4.226564158383700E+00   8.480738479314740E+00
   Mo   1.493904969487340E+01   6.766322419886230E+00   7.560323223733230E+00
   Mo   5.253505822844830E+00   2.697744836666170E+00   3.594179078007780E+00
   Mo   1.376054904060990E+01   9.450732047833460E+00   6.550144181567880E+00
   Mo   1.823034726379600E+01   1.228053383561550E+01   1.079525296223350E+01
   Mo   1.504062369764570E+01   1.286603086155570E+01   1.115396608764430E+01
   Mo   1.215894346423790E+01   7.386481033845090E+00   7.567513106377240E+00
   Mo   7.566270626544040E+00   4.147776339312260E+00   2.704819571956410E+00
    S   1.542572212698400E+01   8.559937750500991E+00   1.122395131584220E+01
    S   1.467258889462050E+01   1.168337831707010E+01   6.192768619444940E+00
    S   1.096713978866110E+01   1.264266795246410E+01   5.761226408742960E+00
    S   8.565391401933359E+00   8.061845587425500E+00   1.473720327151920E+00
    S   8.412852537495560E+00   1.005856688684440E+01   1.043302318008490E+01
    S   1.567876190070510E+01   9.144427576851131E+00   7.985198992867910E+00
    S   9.732448106390530E+00   5.226558252185100E+00   2.820641658948290E+00
    S   7.649827645981510E+00   3.534349201467620E+00   7.750478814537670E+00
    S   6.674386003436310E+00   6.777688234858420E+00   5.858439420890220E+00
    S   1.328469361789100E+01   6.522631602938530E+00   9.386165234260790E+00
    S   1.006037600079370E+01   1.304352166670610E+01   9.587886358185440E+00
    S   7.272984202248380E+00   4.650653063409570E+00   2.419754998711170E-01
    S   8.598408929247150E+00   3.967909262293850E+00   4.915617566592180E+00
    S   2.885583550605310E+00   2.521678933453510E+00   3.147041481861850E+00
    S   1.376407142161830E+01   1.148946091262240E+01   9.664548771057889E+00
    S   9.299127808291541E+00   4.504250736585000E+00   1.093220122753250E+01
    S   1.173756447282250E+01   7.135878983417730E+00   1.127009082691850E+00
    S   1.193682862442520E+01   9.621214965511109E+00   7.995222411794450E+00
    S   7.072185161899790E+00   1.894212337954160E+00   2.327662008539340E+00
    S   1.664342283030520E+01   1.291448642868740E+01   9.273737974301380E+00
    S   1.280575799570620E+01   1.004947934484050E+01   4.332861297316840E+00
    S   4.108129545578700E+00   4.554979782716790E+00   6.737468300304970E+00
    S   9.975999595899580E+00   6.485955241727580E+00   7.899651666510080E+00
    S   9.139727734153970E+00   1.134148918910180E+01   3.172887425688290E+00
    S   5.532583092179420E+00   5.007150030992790E+00   3.507044278896730E+00
    S   1.344620115206260E+01   7.262415284111790E+00   5.624792309067030E+00
    S   1.433950664119400E+01   9.016517635102410E+00   1.272645845450300E+00
    S   6.320339967847020E+00   6.189744659671240E+00   9.499232638908479E+00
