 &control

     calculation = 'scf',

     restart_mode='from_scratch',

     tprnfor=.true.

     prefix='MoS2',

     outdir='./tmp',

     max_seconds = 84500

     disk_io = 'none'

     pseudo_dir = '~/pseudo/',

 /

 &system

    ibrav = 0,

    nat =  24
    ntyp = 2

    ecutwfc = 45 , ecutrho = 360,

    occupations='smearing', smearing='mv', degauss=0.02

/

  &electrons

     diagonalization='david',

     mixing_mode  =  'local-TF',

     mixing_beta = 0.7

   /

   &ions

     ion_dynamics = 'bfgs'

  /

   &cell

     cell_dynamics = 'bfgs',

   /

 ATOMIC_SPECIES

 Mo  95.5     Mo.pw91-n-van.UPF

 S   32.065   S.pw91-van_ak.UPF

K_POINTS {automatic}
  3  3  2 0 0 0
  
CELL_PARAMETERS (angstrom)
   6.680360987328352E+00   0.000000000000000E+00   0.000000000000000E+00
  -3.354432870169194E+00   5.671822306990213E+00   0.000000000000000E+00
  -2.770108942511924E-01  -7.183229007374107E-01   1.174892844714087E+01
  
ATOMIC_POSITIONS (angstrom)
   Mo   1.509049120228850E-01  -5.397833368691179E-01   8.224046237214329E+00
   Mo  -1.654402060382550E+00   2.229382128532660E+00   8.798019449671351E+00
   Mo   3.473525764425100E+00  -5.060957295282590E-01   8.882382594712650E+00
   Mo   1.458567972888350E+00   2.106448920573420E+00   9.596177106144861E+00
   Mo  -2.382323652611630E-01  -1.139467552264500E-03   3.367082213598590E+00
   Mo  -1.938322923432450E+00   2.686777254490900E+00   2.596347350155000E+00
   Mo   2.978393116703070E+00  -1.309880133511800E-01   3.013080315564710E+00
   Mo   1.342330373284970E+00   2.841662291432920E+00   2.537038606529410E+00
    S   1.705239964580070E+00  -5.366652060608760E-01   9.813284645661270E+00
    S  -5.906705995970280E-02   2.968791410414780E+00   1.037501644355380E+01
    S   5.334943852516840E+00   2.758688616212470E-02   9.772536973288959E+00
    S   3.320056884912230E+00   2.624085024941190E+00   1.022544876801980E+01
    S  -4.369075113983320E-01   1.561915312058730E+00   1.720445192947700E+00
    S  -2.186913676078880E+00   4.455763473022040E+00   1.782528628463860E+00
    S   2.658238184980850E+00   1.736311138684290E+00   1.560308671475670E+00
    S   8.558811430948730E-01   4.609375570530240E+00   1.746412895375340E+00
    S   1.310644673451910E-01   2.144170995127520E+00   4.002577413837970E+00
    S  -2.070229127155910E+00   4.552004293046880E+00   4.175625007714310E+00
    S   3.596689485545970E+00   1.606113464511430E+00   3.855869867333620E+00
    S   1.527548183783510E+00   4.897089650756210E+00   4.161432377464560E+00
    S   1.374355071562690E+00   1.038089762132410E+00   7.820124972732560E+00
    S  -2.124783377490660E-01   3.591787146101040E+00   7.851320192670720E+00
    S   5.053441936137420E+00   6.334248228662130E-01   7.462309022731830E+00
    S   3.741570055280050E+00   3.286329432329700E+00   7.629266333800210E+00
