 &control

     calculation = 'scf',

     restart_mode='from_scratch',

     tprnfor=.true.

     prefix='MoS2',

     outdir='./tmp',

     max_seconds = 84500

     disk_io = 'none'

     pseudo_dir = '~/pseudo/',

 /

 &system

    ibrav = 0,

    nat =  24
    ntyp = 2

    ecutwfc = 45 , ecutrho = 360,

    occupations='smearing', smearing='mv', degauss=0.02

/

  &electrons

     diagonalization='david',

     mixing_mode  =  'local-TF',

     mixing_beta = 0.7

   /

   &ions

     ion_dynamics = 'bfgs'

  /

   &cell

     cell_dynamics = 'bfgs',

   /

 ATOMIC_SPECIES

 Mo  95.5     Mo.pw91-n-van.UPF

 S   32.065   S.pw91-van_ak.UPF

K_POINTS {automatic}
  3  6  1 0 0 0
  
CELL_PARAMETERS (angstrom)
   6.390680389215532E+00   0.000000000000000E+00   0.000000000000000E+00
  -1.581985079436485E+00   2.757394126896015E+00   0.000000000000000E+00
  -1.572830613900662E-01  -5.582989254675254E-01   2.285790919379398E+01
  
ATOMIC_POSITIONS (angstrom)
   Mo   2.229660970090010E-01   1.748025625557500E+00   2.836331682214440E+00
   Mo  -1.729055357374140E-01   1.471825922697750E+00   1.421366863334880E+01
   Mo   3.405439383930220E+00   1.779121662352250E+00   2.940565873398660E+00
   Mo   3.015768798230840E+00   1.465434913130230E+00   1.445999875456480E+01
   Mo   1.442713018925430E+00   7.349220069326871E-01   8.589925405954350E+00
   Mo   1.420302285622450E+00   4.316425365168870E-01   2.004519938102770E+01
   Mo   4.652251640421800E+00   7.223329933934159E-01   8.414695023544210E+00
   Mo   4.634695883122830E+00   4.253998318775770E-01   1.992898123187020E+01
    S   1.739536296199460E+00   6.067413593254850E-01   4.025931798341640E+00
    S   1.479018818642470E+00   4.916116606775510E-01   1.548556542334740E+01
    S   4.911032878315280E+00   6.926173637523660E-01   4.087441709665620E+00
    S   4.558515078141650E+00   4.520667646912600E-01   1.555111088993520E+01
    S  -1.664688351629030E-01   1.550195759943590E+00   9.711358604363429E+00
    S  -2.254242787799740E-01   1.242138100976880E+00   2.118720961755380E+01
    S   2.983521031857690E+00   1.619508121292220E+00   9.658420322624369E+00
    S   2.891373244521980E+00   1.326459999879070E+00   2.114329698784090E+01
    S   1.845899161830460E+00   1.154986371783120E+00   1.711417036736830E+00
    S   1.372334345848750E+00   5.603865658190140E-01   1.311718049339770E+01
    S   5.049546388358600E+00   1.004064986575790E+00   1.734426142636850E+00
    S   4.625817279067150E+00   6.830026668668270E-01   1.318976648478480E+01
    S  -1.390575199839270E-01   1.777534255954350E+00   7.352670021952790E+00
    S  -9.349129203217520E-02   1.434584575360020E+00   1.882833503146870E+01
    S   3.147867490771250E+00   1.668439499342480E+00   7.293477576930110E+00
    S   3.200112743577680E+00   1.363774185699200E+00   1.879020698727750E+01
