 &control

     calculation = 'scf',

     restart_mode='from_scratch',

     tprnfor=.true.

     prefix='MoS2',

     outdir='./tmp',

     max_seconds = 84500

     disk_io = 'none'

     pseudo_dir = '~/pseudo/',

 /

 &system

    ibrav = 0,

    nat =  36
    ntyp = 2

    ecutwfc = 45 , ecutrho = 360,

    occupations='smearing', smearing='mv', degauss=0.02

/

  &electrons

     diagonalization='david',

     mixing_mode  =  'local-TF',

     mixing_beta = 0.7

   /

   &ions

     ion_dynamics = 'bfgs'

  /

   &cell

     cell_dynamics = 'bfgs',

   /

 ATOMIC_SPECIES

 Mo  95.5     Mo.pw91-n-van.UPF

 S   32.065   S.pw91-van_ak.UPF

K_POINTS {automatic}
  3  5  1 0 0 0
  
CELL_PARAMETERS (angstrom)
   6.700352400000000E+00   0.000000000000000E+00   0.000000000000000E+00
  -1.675088100000000E+00   2.901337950000000E+00   0.000000000000000E+00
   0.000000000000000E+00   0.000000000000000E+00   4.476822000000001E+01
  
ATOMIC_POSITIONS (angstrom)
   Mo   1.643686515557460E+00   9.575026955016640E-01   7.550824588497750E+00
   Mo   1.729331084285290E+00   9.013227465245790E-01   2.978823438720480E+01
   Mo   4.967625791702630E+00   9.911335851454030E-01   7.378264816578850E+00
   Mo   4.933636341054560E+00   9.715408865963260E-01   2.980067645619810E+01
   Mo   5.042912115965720E-02   1.849008150930210E+00   1.493170598276480E+01
   Mo   4.626864581772140E-02   1.956108578094300E+00   3.721595758713430E+01
   Mo   3.439548084649650E+00   1.939805722781820E+00   1.496226688766480E+01
   Mo   3.310333043333440E+00   1.868738441157420E+00   3.736608419003690E+01
   Mo  -3.472248780594840E-02  -3.480750750463510E-02   2.246619753881470E+01
   Mo  -7.250914400691860E-02  -1.662087084422420E-02   4.469639892863070E+01
   Mo   3.337653892123270E+00  -9.281935429897230E-02   2.234407894745690E+01
   Mo   3.407126685908510E+00  -8.127863402786030E-02   4.475096352364460E+01
    S  -4.586434738094350E-03   1.883502218392980E+00   1.552503204824200E+00
    S  -7.825224537419501E-02   1.992462106078080E+00   2.400063902368910E+01
    S   3.322373136274280E+00   1.987050273797410E+00   1.718790711624480E+00
    S   3.314195517249970E+00   1.947521210598990E+00   2.411502288163730E+01
    S   1.431934379002710E-02   8.698392964410280E-02   5.860094421702240E+00
    S   9.883590918054630E-03   3.122569728264950E-02   2.829147899160170E+01
    S   3.255909846923580E+00  -7.317057658738820E-03   5.780322273977280E+00
    S   3.328975312128420E+00   9.634152954503281E-02   2.821339085594700E+01
    S  -1.599352814075670E-02  -6.355889986601899E-02   9.175452122581540E+00
    S   8.577807874237670E-02  -7.380889136385600E-03   3.153490304602890E+01
    S   3.356271064336870E+00  -5.747995972194460E-02   9.181526284184320E+00
    S   3.348470308026110E+00   1.651028207686620E-02   3.158264704096140E+01
    S   1.705713373826480E+00   9.061283732125370E-01   1.320114988772790E+01
    S   1.676211123557700E+00   1.046299072840670E+00   3.559729912855180E+01
    S   5.029530057617580E+00   1.066952609620750E+00   1.327055853646450E+01
    S   4.941791673742880E+00   1.008813237418520E+00   3.562239869004370E+01
    S   1.647530791474030E+00   1.062096841026670E+00   1.657606242607150E+01
    S   1.640307341626840E+00   1.050292018540130E+00   3.890213916538210E+01
    S   5.099289847792050E+00   9.613078180466190E-01   1.649430325607230E+01
    S   5.101942577745060E+00   9.744928133574809E-01   3.888162979761830E+01
    S   5.057431667753190E-02   1.978477749021670E+00   2.066157902596710E+01
    S   6.046031876637580E-02   1.991625062847410E+00   4.306451789879760E+01
    S   3.359295076069490E+00   1.899868619489000E+00   2.064216368104740E+01
    S   3.323349629306570E+00   1.840162903996240E+00   4.309894537565990E+01
