 &control

     calculation = 'relax',

     restart_mode='from_scratch',

     tprnfor=.true.

     prefix='MoS2',

     outdir='./tmp',

     max_seconds = 84500

     disk_io = 'none'

     pseudo_dir = '~/pseudo/',

     nstep= 4

 /

 &system

    ibrav = 0,

    nat =  12
    ntyp = 2

    ecutwfc = 45 , ecutrho = 360,

    occupations='smearing', smearing='mv', degauss=0.02

/

  &electrons

     diagonalization='david',

     mixing_mode  =  'local-TF',

     mixing_beta = 0.7

   /

   &ions

     ion_dynamics = 'bfgs'

  /

   &cell

     cell_dynamics = 'bfgs',

   /

 ATOMIC_SPECIES

 Mo  95.5     Mo.pw91-n-van.UPF

 S   32.065   S.pw91-van_ak.UPF

K_POINTS {automatic}
  3  3  1 0 0 0
  
CELL_PARAMETERS (angstrom)
   6.515809747143470E+00   0.000000000000000E+00   0.000000000000000E+00
   3.244593275936390E+00   5.625677967608570E+00   0.000000000000000E+00
   1.428429674274440E+00   8.453421469179940E-01   1.647320516115360E+01
  
ATOMIC_POSITIONS (angstrom)
   Mo   7.850388275237810E+00   8.248386158895310E-01   1.635231045053500E+01
   Mo   6.428504660660800E+00   3.663838740885170E+00   1.642948727678890E+01
   Mo   4.595725320181770E+00   9.339898349161020E-01   1.642634838856570E+01
   Mo   9.649159834228280E+00   3.737986110169250E+00   1.643661701128510E+01
    S   6.586184950195760E+00   1.732952396612190E+00   1.551165543550970E+00
    S   4.780901668222170E+00   4.748619525732940E+00   1.477026830639100E+00
    S   3.290684321980290E+00   1.975695715707980E+00   1.514080841768270E+00
    S   7.999164823654270E+00   4.703402171314120E+00   1.529999839763290E+00
    S   7.993172051501400E+00   2.733228340386550E+00   1.489873728629300E+01
    S   6.228810973736740E+00   5.513574676708030E+00   1.486365885033650E+01
    S   4.702430945865950E+00   2.723623869521390E+00   1.479676323071270E+01
    S   9.419824005319949E+00   5.594607643231470E+00   1.482718842295460E+01
