 &control

     calculation = 'scf',

     restart_mode='from_scratch',

     tprnfor=.true.

     prefix='MoS2',

     outdir='./tmp',

     max_seconds = 84500

     disk_io = 'none'

     pseudo_dir = '~/pseudo/',

 /

 &system

    ibrav = 0,

    nat =  24
    ntyp = 2

    ecutwfc = 45 , ecutrho = 360,

    occupations='smearing', smearing='mv', degauss=0.02

/

  &electrons

     diagonalization='david',

     mixing_mode  =  'local-TF',

     mixing_beta = 0.7

   /

   &ions

     ion_dynamics = 'bfgs'

  /

   &cell

     cell_dynamics = 'bfgs',

   /

 ATOMIC_SPECIES

 Mo  95.5     Mo.pw91-n-van.UPF

 S   32.065   S.pw91-van_ak.UPF

K_POINTS {automatic}
  3  5  1 0 0 0
  
CELL_PARAMETERS (angstrom)
   6.699663600000001E+00   0.000000000000000E+00   0.000000000000000E+00
  -1.674915900000000E+00   2.901038700000000E+00   0.000000000000000E+00
   0.000000000000000E+00   0.000000000000000E+00   3.124590840000000E+01
  
ATOMIC_POSITIONS (angstrom)
   Mo   2.408669965256110E-02   1.881471286159790E+00   3.824143993545860E+00
   Mo  -2.462647766814010E-02   1.842183930035520E+00   1.949773289881560E+01
   Mo   3.420564971234610E+00   1.957011683227760E+00   3.838893391860760E+00
   Mo   3.383928218312330E+00   1.907545501110960E+00   1.943849262475380E+01
   Mo   1.656811154881870E+00   9.972798560471350E-01   1.181078920602510E+01
   Mo   1.596974805347250E+00   1.023113420533620E+00   2.736805439351490E+01
   Mo   5.010092319688100E+00   1.016351428906220E+00   1.163147893164380E+01
   Mo   5.027729520951480E+00   8.860951360313880E-01   2.728148773432550E+01
    S   1.747258849618550E+00   9.011768729747420E-01   5.569663405070530E+00
    S   1.580502664004730E+00   9.850141771614590E-01   2.119942104159310E+01
    S   5.010262182122140E+00   9.393516192842930E-01   5.643867283929730E+00
    S   5.005086581308510E+00   9.575562412948470E-01   2.126941213604290E+01
    S  -9.878489494234299E-02   1.919373290729490E+00   1.336555490427950E+01
    S  -1.787003666834380E-02   1.872277893709700E+00   2.890669687960230E+01
    S   3.390449227819730E+00   1.947294291178250E+00   1.326993371962760E+01
    S   3.377161575590180E+00   2.022454307692710E+00   2.902116084201390E+01
    S   1.624546444063670E+00   1.000911399687820E+00   2.183151955089300E+00
    S   1.680690590791520E+00   1.048983181362710E+00   1.794255001169840E+01
    S   4.965010989720970E+00   9.691048920272470E-01   2.342778193443820E+00
    S   5.044159707577790E+00   9.015129458574510E-01   1.795859239013550E+01
    S   1.329422393778770E-02   1.854335067524510E+00   1.013301458066710E+01
    S  -1.884156920669670E-02   1.935481423620020E+00   2.579523974946500E+01
    S   3.344183407549060E+00   1.841406446602570E+00   1.011136428090830E+01
    S   3.310308470903400E+00   2.025691220283080E+00   2.570301343856840E+01
