 &control

     calculation = 'relax',

     restart_mode='from_scratch',

     tprnfor=.true.

     prefix='MoS2',

     outdir='./tmp',

     max_seconds = 84500

     disk_io = 'none'

     pseudo_dir = '~/pseudo/',

     nstep= 4

 /

 &system

    ibrav = 0,

    nat =  24
    ntyp = 2

    ecutwfc = 45 , ecutrho = 360,

    occupations='smearing', smearing='mv', degauss=0.02

/

  &electrons

     diagonalization='david',

     mixing_mode  =  'local-TF',

     mixing_beta = 0.7

   /

   &ions

     ion_dynamics = 'bfgs'

  /

   &cell

     cell_dynamics = 'bfgs',

   /

 ATOMIC_SPECIES

 Mo  95.5     Mo.pw91-n-van.UPF

 S   32.065   S.pw91-van_ak.UPF

K_POINTS {automatic}
  3  3  1 0 0 0
  
CELL_PARAMETERS (angstrom)
   6.463584545783730E+00   0.000000000000000E+00   0.000000000000000E+00
   3.249337011960340E+00   5.593360852987110E+00   0.000000000000000E+00
   2.343766281029580E+00  -1.347409315071730E-01   1.677947500645490E+01
  
ATOMIC_POSITIONS (angstrom)
   Mo   3.385735289433790E+00  -1.617130221244500E-02   1.344312583202400E+01
   Mo   8.220748805121410E+00   2.792453539596570E+00   1.348424022358510E+01
   Mo   6.604671090514110E+00  -4.001225276085510E-02   1.344276915860930E+01
   Mo   4.986055459549280E+00   2.779566264831340E+00   1.340636280311900E+01
   Mo   8.674068404596770E+00   5.492004109294140E+00   3.259426725560390E+00
   Mo   3.792608939001070E+00   2.609505424304580E+00   3.350280331622300E+00
   Mo   5.479509268123300E+00   5.489427224866230E+00   3.296954160805500E+00
   Mo   7.083813958341210E+00   2.660920955514110E+00   3.240689723215460E+00
    S   5.002743019226150E+00   9.346257525770920E-01   1.501231054178530E+01
    S   9.868428858846540E+00   3.695737470896680E+00   1.504872290832020E+01
    S   8.213334574450551E+00   9.016493095513570E-01   1.502607171858530E+01
    S   6.559072051004620E+00   3.724982070451900E+00   1.502385700173190E+01
    S   5.407114494624130E+00   1.783285206715790E+00   1.694899761166710E+00
    S   3.863665672847930E+00   4.481857748117580E+00   1.777800492096460E+00
    S   2.247723013535960E+00   1.722006297772860E+00   1.668992602270210E+00
    S   7.069657589978900E+00   4.550215913749110E+00   1.675968700371750E+00
    S   5.490223023418500E+00   1.736485429140960E+00   4.847345686588790E+00
    S   3.821464551928310E+00   4.542032278873900E+00   4.816620219334500E+00
    S   2.136436597984550E+00   1.714941806035880E+00   4.913406630145480E+00
    S   7.094200219003320E+00   4.511886661631010E+00   4.826249792733810E+00
    S   5.008918972992040E+00   8.966677931901560E-01   1.186231700698610E+01
    S   9.807121389503379E+00   3.697750977016050E+00   1.186960145369010E+01
    S   8.230568827139271E+00   9.346861527826330E-01   1.190820033862070E+01
    S   6.638406729124930E+00   3.709292176083650E+00   1.187847871077750E+01
