 &control

     calculation = 'scf',

     restart_mode='from_scratch',

     tprnfor=.true.

     prefix='MoS2',

     outdir='./tmp',

     max_seconds = 84500

     disk_io = 'none'

     pseudo_dir = '~/pseudo/',

     nstep= 80

 /

 &system

    ibrav = 0,

    nat =  24
    ntyp = 2

    ecutwfc = 45 , ecutrho = 360,

    occupations='smearing', smearing='mv', degauss=0.02

/

  &electrons

     diagonalization='david',

     mixing_mode  =  'local-TF',

     mixing_beta = 0.7

   /

   &ions

     ion_dynamics = 'bfgs'

  /

   &cell

     cell_dynamics = 'bfgs',

   /

 ATOMIC_SPECIES

 Mo  95.5     Mo.pw91-n-van.UPF

 S   32.065   S.pw91-van_ak.UPF

K_POINTS {automatic}
  3  3  1 0 0 0
  
CELL_PARAMETERS (angstrom)
   6.447046682436330E+00   0.000000000000000E+00   0.000000000000000E+00
   3.218827743327270E+00   5.611748201063170E+00   0.000000000000000E+00
   1.139917922538110E+00   1.241656005058890E+00   1.612268829194530E+01
  
ATOMIC_POSITIONS (angstrom)
   Mo   1.919023040339760E+00   1.554262804721780E+00   1.244755146004450E+01
   Mo   6.747834512570610E+00   4.461626633831040E+00   1.235405648351040E+01
   Mo   5.158897348967100E+00   1.531901957444460E+00   1.251034609652370E+01
   Mo   3.560034642382730E+00   4.472805846642600E+00   1.241197794837650E+01
   Mo   8.834191364373289E+00   5.303554190704740E+00   3.683164371169880E+00
   Mo   4.056071771576180E+00   2.349356025604040E+00   3.687607694242950E+00
   Mo   5.668214146559910E+00   5.236058081670280E+00   3.575639095959980E+00
   Mo   7.262160426291040E+00   2.421275580532430E+00   3.644087376012460E+00
    S   3.538389831781470E+00   2.591639111907200E+00   1.397353148881290E+01
    S   8.370063304591520E+00   5.283704579113940E+00   1.404443307860860E+01
    S   6.791441026082420E+00   2.622151791247860E+00   1.398530903973820E+01
    S   5.187405242553830E+00   5.348596837103740E+00   1.402340308170710E+01
    S   5.653432621367720E+00   1.512026373949550E+00   2.059653813004670E+00
    S   3.932720560912560E+00   4.284457144529120E+00   2.131865370166110E+00
    S   2.414148103720350E+00   1.520365738256490E+00   2.062181926754330E+00
    S   7.283567159686420E+00   4.294738720134220E+00   2.037049992898010E+00
    S   5.736816275014490E+00   1.504274973151670E+00   5.290658794789890E+00
    S   4.079803607904690E+00   4.298972811986070E+00   5.162609443107100E+00
    S   2.423825249236750E+00   1.400186284454570E+00   5.201948177508950E+00
    S   7.253238253041900E+00   4.304555138467980E+00   5.209243124392050E+00
    S   3.584133293630820E+00   2.497029426131520E+00   1.092876678887720E+01
    S   8.399412033352020E+00   5.356860798606050E+00   1.081582136746730E+01
    S   6.724447663722290E+00   2.487961668320170E+00   1.089769668403290E+01
    S   5.139662249983050E+00   5.349795868649630E+00   1.077774691638180E+01
