 &control

     calculation = 'relax',

     restart_mode='from_scratch',

     tprnfor=.true.

     prefix='MoS2',

     outdir='./tmp',

     max_seconds = 84500

     disk_io = 'none'

     pseudo_dir = '~/pseudo/',

     nstep= 4

 /

 &system

    ibrav = 0,

    nat =  15
    ntyp = 2

    ecutwfc = 45 , ecutrho = 360,

    occupations='smearing', smearing='mv', degauss=0.02

/

  &electrons

     diagonalization='david',

     mixing_mode  =  'local-TF',

     mixing_beta = 0.7

   /

   &ions

     ion_dynamics = 'bfgs'

  /

   &cell

     cell_dynamics = 'bfgs',

   /

 ATOMIC_SPECIES

 Mo  95.5     Mo.pw91-n-van.UPF

 S   32.065   S.pw91-van_ak.UPF

K_POINTS {automatic}
  3  3  2 0 0 0
  
CELL_PARAMETERS (angstrom)
   6.202220302244320E+00   0.000000000000000E+00   0.000000000000000E+00
  -5.706311452809560E-01   6.423446026062600E+00   0.000000000000000E+00
  -2.246533064525640E+00  -4.938289796310720E-01   9.690145527382860E+00
  
ATOMIC_POSITIONS (angstrom)
   Mo   1.995629452867110E+00   2.169980315869720E+00   1.019163512185370E+00
   Mo   1.472474500872630E+00   2.792762891661670E+00   5.956051691294350E+00
   Mo  -1.466567359490320E+00   3.770591794251740E+00   9.580758475866039E+00
   Mo  -6.437430192328519E-02   1.050444608025070E+00   2.110048950835250E+00
   Mo   4.957895311872580E+00   5.187129650057630E+00   1.146684072446380E+00
    S   2.773697926691640E+00   3.016905831472670E+00   8.215882408907310E+00
    S   9.530987111782030E-01   1.406938401139230E-01   2.970219183165510E-01
    S  -1.457720848234320E-01   3.248225614751730E+00   4.291945384087000E+00
    S   3.200292991302350E-01   2.134361081760190E+00   7.881049713449880E+00
    S   2.836292014647080E-01   3.475854675959800E+00   1.911213903293890E+00
    S   1.785976494764170E+00   1.828693634220630E+00   3.581233595581770E+00
    S   3.863518160800060E+00   6.930381475201570E-01   1.607222100631170E+00
    S   9.928333222737400E-01   4.628981827986440E+00   7.529481207134890E+00
    S  -9.411084182821930E-01   5.608311086295760E+00   3.510113259033640E+00
    S   3.127188756698720E+00   4.040576368848580E+00   1.038165009179830E-01
