 &control

     calculation = 'scf',

     restart_mode='from_scratch',

     tprnfor=.true.

     prefix='MoS2',

     outdir='./tmp',

     max_seconds = 84500

     disk_io = 'none'

     pseudo_dir = '~/pseudo/',

 /

 &system

    ibrav = 0,

    nat =  36
    ntyp = 2

    ecutwfc = 45 , ecutrho = 360,

    occupations='smearing', smearing='mv', degauss=0.02

/

  &electrons

     diagonalization='david',

     mixing_mode  =  'local-TF',

     mixing_beta = 0.7

   /

   &ions

     ion_dynamics = 'bfgs'

  /

   &cell

     cell_dynamics = 'bfgs',

   /

 ATOMIC_SPECIES

 Mo  95.5     Mo.pw91-n-van.UPF

 S   32.065   S.pw91-van_ak.UPF

K_POINTS {automatic}
  3  3  1 0 0 0
  
CELL_PARAMETERS (angstrom)
   6.540820199999999E+00   0.000000000000000E+00   0.000000000000000E+00
  -3.270410099999999E+00   5.664516949999999E+00   0.000000000000000E+00
   0.000000000000000E+00   0.000000000000000E+00   2.185115500000000E+01
  
ATOMIC_POSITIONS (angstrom)
   Mo   1.590823575541880E+00   1.021973923698680E+00   7.100054885675290E+00
   Mo  -5.281532185615740E-02   3.805883684174240E+00   7.088213590584080E+00
   Mo   4.932998879065950E+00   9.685925938587290E-01   7.082243203251030E+00
   Mo   3.258247502077800E+00   3.811763672078930E+00   7.082375888789580E+00
   Mo  -2.434511576886760E-02   1.904441404799170E+00   1.476041639154570E+01
   Mo  -1.715611927721650E+00   4.537348278267970E+00   1.455864118464730E+01
   Mo   3.202781432435320E+00   1.723372629642370E+00   1.447164624810010E+01
   Mo   1.698949958397060E+00   4.904560096449050E+00   1.460766132984670E+01
   Mo   1.107254677732380E-01   1.472525524020460E-01   2.192410607435750E+01
   Mo  -1.608076965003640E+00   2.644542991766000E+00   2.178282382530620E+01
   Mo   3.187536768844960E+00   2.058372161775960E-02   2.202713661286100E+01
   Mo   1.661289953106640E+00   2.808309368153070E+00   2.204312227501770E+01
    S   1.361147842784190E-01   1.873340911464290E+00   1.453766487579850E+00
    S  -1.824572386738500E+00   4.709479525996630E+00   1.536139414665160E+00
    S   3.266105260559300E+00   1.854050022241400E+00   1.796568772689560E+00
    S   1.502615042128280E+00   4.648699368826730E+00   1.730981847396320E+00
    S   7.457357116063119E-02   2.342809462473980E-02   5.858574854806850E+00
    S  -1.710651398915660E+00   2.661895359407810E+00   5.747175636686530E+00
    S   3.099123266698660E+00  -5.687303923363230E-02   5.760658595573830E+00
    S   1.788451774937020E+00   2.703869890910450E+00   5.680123020799460E+00
    S  -1.638216168878200E-01  -1.132384301183220E-01   8.864832801117460E+00
    S  -1.632313984630680E+00   2.828704458549510E+00   9.083206817809840E+00
    S   3.261213867298560E+00   1.614436386950980E-01   8.765567408531600E+00
    S   1.676568197532180E+00   2.826513565359230E+00   9.078850928726141E+00
    S   1.723207200605360E+00   8.143463063318350E-01   1.283400149858360E+01
    S  -7.355020904903430E-02   3.868533890116980E+00   1.279666641364820E+01
    S   4.926147765816110E+00   8.938760242530880E-01   1.315069707773410E+01
    S   3.416678191202750E+00   3.808733505780820E+00   1.309069670859940E+01
    S   1.447209824419760E+00   1.012320301245460E+00   1.616804423636620E+01
    S  -5.762721250538800E-04   3.772787596794790E+00   1.596700279959890E+01
    S   5.091625926280820E+00   8.709741167282470E-01   1.615952945674440E+01
    S   3.363401125542430E+00   3.863542687131150E+00   1.601286224245560E+01
    S   1.296506704242170E-01   1.866755747684660E+00   2.039269661334860E+01
    S  -1.635901369839560E+00   4.527505253733210E+00   2.029464186761930E+01
    S   3.354556842633530E+00   1.986797017199260E+00   2.008963616119430E+01
    S   1.797827796635000E+00   4.825659494548780E+00   2.019212278244820E+01
