 &control

     calculation = 'scf',

     restart_mode='from_scratch',

     tprnfor=.true.

     prefix='MoS2',

     outdir='./tmp',

     max_seconds = 84500

     disk_io = 'none'

     nstep= 25

     pseudo_dir = '~/pseudo/',

 /

 &system

    ibrav = 0,

    nat =  30
    ntyp = 2

    ecutwfc = 45 , ecutrho = 360,

    occupations='smearing', smearing='mv', degauss=0.02

/

  &electrons

     diagonalization='david',

     mixing_mode  =  'local-TF',

     mixing_beta = 0.7

   /

   &ions

     ion_dynamics = 'bfgs'

  /

   &cell

     cell_dynamics = 'bfgs',

   /

 ATOMIC_SPECIES

 Mo  95.5     Mo.pw91-n-van.UPF

 S   32.065   S.pw91-van_ak.UPF

K_POINTS {automatic}
  3  2  1 0 0 0
  
CELL_PARAMETERS (angstrom)
   6.499640466281530E+00   0.000000000000000E+00   0.000000000000000E+00
  -1.566489825259280E+00   8.503795971388961E+00   0.000000000000000E+00
  -3.120240394682840E+00  -2.227711860462830E+00   2.092957955964560E+01
  
ATOMIC_POSITIONS (angstrom)
   Mo   3.056625103626700E+00   5.415765186996590E+00   1.255981814079510E+01
   Mo  -2.240787689372040E-01  -1.931935301783220E-01   1.255593238958300E+01
   Mo   2.831472254312850E+00   4.544744904440440E+00   6.264825375555780E+00
   Mo   3.210919592951080E+00   1.623826181930480E+00   6.800238426232480E+00
   Mo   2.622028099681650E+00   7.489301873272880E+00   5.832133202699300E+00
   Mo  -1.795676432626180E+00   2.626483056159060E+00   1.259891668789960E+01
   Mo   1.399537750936300E+00   2.619916903066880E+00   1.260192073334130E+01
   Mo   3.011172633388120E+00  -2.229972431386170E-01   1.253565981137340E+01
   Mo  -1.932030017833870E-01   5.412180647859350E+00   1.259598762020000E+01
   Mo   3.773798220659080E+00  -5.556710516778670E-01   8.601958924503419E+00
    S   1.429533817081770E+00   4.485856634238780E+00   1.102832583048000E+01
    S  -1.812272025630680E+00   4.492113853583160E+00   1.100999337836970E+01
    S  -1.900810113713790E-01   1.666206676571290E+00   1.102021827533230E+01
    S  -1.867899675885980E+00  -1.160642578417180E+00   1.406991417377230E+01
    S  -1.830690118590190E-01   7.300534141073590E+00   1.105104695940540E+01
    S  -1.804209738740080E+00   3.530804074186750E+00   6.974629099910730E+00
    S   1.363946562271090E+00   6.183146322389070E+00   7.307264578603430E+00
    S   3.064011434511890E+00   1.682163610410650E+00   1.107132972163420E+01
    S   3.060772280293870E+00   7.349483059761600E+00   1.089651203564450E+01
    S   1.448285953202470E+00   4.492882978628370E+00   1.417009066400340E+01
    S   2.829239298137400E+00   3.872502505907460E-01   4.754203349525090E+00
    S  -1.102267302799650E+00   3.997254627835000E-01   7.260321261242140E+00
    S   3.147949858868100E+00   5.800075553903010E+00   4.332959326515220E+00
    S   1.526767857394450E+00   3.255871844214770E+00   7.839536486916070E+00
    S   1.869662993906270E+00   5.540717612907600E-01   8.392408988411660E+00
    S   1.259642071289990E+00   2.880080042113510E+00   5.691552275322460E+00
    S  -1.994569332774140E-01   1.646926370600210E+00   1.417764031562020E+01
    S  -1.839149351428940E+00   4.499066277400940E+00   1.417111274614670E+01
    S   1.399577292946160E+00  -1.145873825820380E+00   1.412162709271230E+01
    S   3.045434843743110E+00   1.634604580693820E+00   1.413251423493940E+01
