 &control

     calculation = 'scf',

     restart_mode='from_scratch',

     tprnfor=.true.

     prefix='MoS2',

     outdir='./tmp',

     max_seconds = 84500

     disk_io = 'none'

     pseudo_dir = '~/pseudo/',

 /

 &system

    ibrav = 0,

    nat =  24
    ntyp = 2

    ecutwfc = 45 , ecutrho = 360,

    occupations='smearing', smearing='mv', degauss=0.02

/

  &electrons

     diagonalization='david',

     mixing_mode  =  'local-TF',

     mixing_beta = 0.7

   /

   &ions

     ion_dynamics = 'bfgs'

  /

   &cell

     cell_dynamics = 'bfgs',

   /

 ATOMIC_SPECIES

 Mo  95.5     Mo.pw91-n-van.UPF

 S   32.065   S.pw91-van_ak.UPF

K_POINTS {automatic}
  3  5  1 0 0 0
  
CELL_PARAMETERS (angstrom)
   6.868807399009112E+00   0.000000000000000E+00   0.000000000000000E+00
  -1.739251256990194E+00   2.927771009192525E+00   0.000000000000000E+00
  -1.279499455382581E+00  -4.122149306213542E+00   2.430341682108049E+01
  
ATOMIC_POSITIONS (angstrom)
   Mo   8.699091090668259E-01   1.052147077969130E+00   3.084022027087800E+00
   Mo  -1.401937800145060E+00  -1.223085023367690E+00   1.554919949459170E+01
   Mo   4.315908335295910E+00   9.388891051697090E-01   3.355275678226940E+00
   Mo   2.112788576861950E+00  -1.234914964419270E+00   1.552428463244430E+01
   Mo   7.972498498854450E-01  -6.052318099875890E-02   8.860753462098829E+00
   Mo   4.327951417421350E-01  -2.155171058902320E+00   2.132889424001970E+01
   Mo   4.182304388366690E+00  -5.268606977622190E-02   8.598582697860889E+00
   Mo   3.886374057374760E+00  -2.135105810015560E+00   2.091939128949400E+01
    S   2.683348052739800E+00   1.960742225371160E+00   4.288016609869220E+00
    S   3.659102504490560E-01  -3.512869076152270E-01   1.651259324599080E+01
    S   6.194930806448070E+00   1.989209215344200E+00   4.199116094914180E+00
    S   3.721350390739800E+00  -4.021845779678170E-01   1.657987764842210E+01
    S  -7.169034996588231E-01   9.997526134887050E-01   9.854129567095560E+00
    S  -1.335923954756600E+00  -1.086913665101890E+00   2.220109733601630E+01
    S   2.666950732249310E+00   1.022417731200970E+00   9.758332936849580E+00
    S   1.986449118903890E+00  -9.561948780098880E-01   2.215842464988410E+01
    S   2.798283349933430E+00   2.065335392333960E-02   2.134505772875560E+00
    S   2.637730212082460E-01  -2.373105275680550E+00   1.451285066666770E+01
    S   6.141321251560310E+00  -1.027678757434830E-03   2.195196828236390E+00
    S   3.791188855322400E+00  -2.359993541095090E+00   1.442860678428170E+01
    S  -7.539494245884670E-01  -9.619126360351899E-01   7.720775632638820E+00
    S  -1.312965305737080E+00  -3.011996116497880E+00   2.009024733396140E+01
    S   2.635794211195050E+00  -9.659544975647451E-01   7.685075369568650E+00
    S   2.080565813356620E+00  -2.891358268697790E+00   2.009501561638090E+01
