 &control

     calculation = 'scf',

     restart_mode='from_scratch',

     tprnfor=.true.

     prefix='MoS2',

     outdir='./tmp',

     max_seconds = 84500

     disk_io = 'none'

     pseudo_dir = '~/pseudo/',

 /

 &system

    ibrav = 0,

    nat =  24
    ntyp = 2

    ecutwfc = 45 , ecutrho = 360,

    occupations='smearing', smearing='mv', degauss=0.02

/

  &electrons

     diagonalization='david',

     mixing_mode  =  'local-TF',

     mixing_beta = 0.7

   /

   &ions

     ion_dynamics = 'bfgs'

  /

   &cell

     cell_dynamics = 'bfgs',

   /

 ATOMIC_SPECIES

 Mo  95.5     Mo.pw91-n-van.UPF

 S   32.065   S.pw91-van_ak.UPF

K_POINTS {automatic}
  3  6  1 0 0 0
  
CELL_PARAMETERS (angstrom)
   6.418655974996491E+00   0.000000000000000E+00   0.000000000000000E+00
  -1.608102624950926E+00   2.768151620364311E+00   0.000000000000000E+00
  -5.554316179165534E-01  -1.363806487767602E+00   2.320224836665319E+01
  
ATOMIC_POSITIONS (angstrom)
   Mo   1.359347402126360E-01  -4.454444353639730E-01   8.710518928035061E+00
   Mo  -5.249588903522870E-01  -1.312439297434170E+00   2.003441440050870E+01
   Mo   3.319287485465760E+00  -3.882198676974130E-01   8.508417531242131E+00
   Mo   2.564738611812500E+00  -1.343912524918060E+00   2.087177727545250E+01
   Mo  -7.422179381691520E-02  -8.951241846001340E-02   3.009716952990620E+00
   Mo  -5.318399669107350E-01  -8.212959817263210E-01   1.447087206518660E+01
   Mo   3.077031646255030E+00  -7.485318346960190E-02   2.830746179757840E+00
   Mo   2.671644516533090E+00  -8.133559894672669E-01   1.439048410431650E+01
    S   1.812637855347090E+00  -1.033488225351210E-01   9.790246618779079E+00
    S   9.159213468403540E-01  -4.352631059161860E-01   2.179673821209010E+01
    S   4.906917947842440E+00   8.872939733477169E-03   9.799363795484449E+00
    S   4.218811386151860E+00  -3.948312820057500E-01   2.145235443471330E+01
    S  -3.810021059149320E-01   1.675546198954160E+00   1.781957681976500E+00
    S  -4.817213847576470E-01   9.795084649659650E-01   1.326243858085110E+01
    S   2.840800253131230E+00   1.642224494659540E+00   1.720692654924780E+00
    S   2.663568591869750E+00   1.024804470381400E+00   1.324162796063570E+01
    S   1.080319478816810E-01   1.792849292307070E+00   4.105651646961640E+00
    S  -5.518555988679410E-01   1.033284266490120E+00   1.562767241034830E+01
    S   3.405775456280940E+00   1.611810390960820E+00   4.057082732934030E+00
    S   2.658257994083240E+00   1.095233346375150E+00   1.560700202660140E+01
    S   1.461677448739240E+00   6.912188176973890E-01   7.455812531137660E+00
    S   1.205751333235880E+00  -2.538413361821390E-01   1.944066408609510E+01
    S   4.708814176309080E+00   7.681278021905680E-01   7.455387466791120E+00
    S   4.504525467115160E+00  -2.338193823699240E-01   1.898738615114720E+01
