 &control

     calculation = 'scf',

     restart_mode='from_scratch',

     tprnfor=.true.

     prefix='MoS2',

     outdir='./tmp',

     max_seconds = 84500

     disk_io = 'none'

     nstep= 12

     pseudo_dir = '~/pseudo/',

 /

 &system

    ibrav = 0,

    nat =  42
    ntyp = 2

    ecutwfc = 45 , ecutrho = 360,

    occupations='smearing', smearing='mv', degauss=0.02

/

  &electrons

     diagonalization='david',

     mixing_mode  =  'local-TF',

     mixing_beta = 0.7

   /

   &ions

     ion_dynamics = 'bfgs'

  /

   &cell

     cell_dynamics = 'bfgs',

   /

 ATOMIC_SPECIES

 Mo  95.5     Mo.pw91-n-van.UPF

 S   32.065   S.pw91-van_ak.UPF

K_POINTS {automatic}
  2  2  2 0 0 0
  
CELL_PARAMETERS (angstrom)
   8.624445714994090E+00   0.000000000000000E+00   0.000000000000000E+00
   1.196610314221680E+00   1.131646184885130E+01   0.000000000000000E+00
   4.150417722700610E+00   4.162858298291590E+00   9.973295031346550E+00
  
ATOMIC_POSITIONS (angstrom)
   Mo   8.159332774905639E+00   3.021419506097390E+00   3.002951715801500E+00
   Mo   2.856205279225580E+00   2.755851761882720E+00   6.559322835980010E+00
   Mo   8.548423149342360E+00   2.805151788182350E+00   6.220167234575280E+00
   Mo   6.128363545341320E+00   8.633039125366681E+00   3.911239345514560E+00
   Mo   5.092920692727150E+00   8.313827347689870E+00   6.683591952290080E+00
   Mo   6.899843726479420E+00   7.447154396634140E+00   9.122359293647660E+00
   Mo   5.108977202690110E+00   5.603275701121980E+00   8.108687122849471E+00
   Mo   8.633872931849680E+00   3.458755509748200E+00   1.442481324572320E-01
   Mo   3.383163466516500E+00   9.253754994101669E+00   4.316704603575080E+00
   Mo   7.404075393930400E+00   5.700682778755970E+00   1.995876410005390E+00
   Mo   6.872471116692860E+00   1.364361770609640E+01   6.377316142775010E+00
   Mo   9.630130742828900E+00   4.059831141356030E+00   8.362282917364929E+00
   Mo   5.949964933371420E+00   3.421032502181590E+00   9.767475956621730E-01
   Mo   5.179020627780230E+00   1.106786415265200E+01   5.556524404434350E+00
    S   1.002782053941140E+01   2.209736530453080E+00   4.415195813006850E+00
    S   5.728446428326230E+00   7.548911610484590E+00   1.600249914933470E+00
    S   4.324888489344130E+00   7.174759972808840E+00   4.591252004573420E+00
    S   9.059489232077850E+00   6.183440406829190E+00   9.221691448084391E+00
    S   4.148350652513240E+00   1.923577890474980E+00   4.501049046813890E+00
    S   9.522783618379229E+00   4.709417588069060E+00   2.078710615470830E+00
    S   5.465931188247440E+00   1.230004164588670E+01   7.669207862633400E+00
    S   6.887715326868020E+00   6.562847669640100E+00   6.874403716261790E+00
    S   5.458883791815210E+00   9.333338399285489E+00   8.873169962663880E+00
    S   7.387924558657700E+00   1.595921313709570E+00   1.294102172336460E+00
    S   7.014244291904230E+00   3.503552168013410E+00   8.185528853067749E+00
    S   8.331510153361210E+00   1.280185838413910E+01   4.712215284236320E+00
    S   6.968791714363730E+00   9.622245590246299E+00   5.932938793057780E+00
    S   2.238191406684680E+00   8.677017912683640E+00   2.054281939851860E+00
    S   9.951984612134320E+00   4.809830913518540E+00   6.136531583769360E+00
    S   7.164889551090590E+00   8.970945493326459E+00   1.538837478218810E+00
    S   1.080859179111100E+01   1.292450405006190E+01   7.956078542302370E+00
    S   6.138149058791120E+00   4.277023107259850E+00   3.272881432776640E+00
    S   4.865622279384540E+00   1.055566888658310E+01   3.186781669817260E+00
    S   4.656949901862570E+00   4.387771168403340E+00   6.093920585787150E+00
    S   7.949914372870530E+00   7.001042778836330E+00   3.957008068095370E+00
    S   1.191821614868130E+01   7.022216160478550E+00   7.916213049243720E+00
    S   3.795142275745150E+00   4.434827141776560E+00   9.487104323925990E-01
    S   9.823989913372991E+00   9.763392044611710E+00   3.466931352730370E+00
    S   1.194011876363950E+01   1.000859114965500E+01   6.485320294611710E+00
    S   1.102608751234990E+01   9.289918202670551E+00   9.650769588688171E+00
    S   1.199609728735470E+01   3.878381207405320E+00   8.820521164004070E+00
    S   1.693220301408090E+00   1.620692613588380E+00   3.602736285724270E-01
