 &control

     calculation = 'relax',

     restart_mode='from_scratch',

     tprnfor=.true.

     prefix='MoS2',

     outdir='./tmp',

     max_seconds = 84500

     disk_io = 'none'

     pseudo_dir = '~/pseudo/',

     nstep= 4

 /

 &system

    ibrav = 0,

    nat =  24
    ntyp = 2

    ecutwfc = 45 , ecutrho = 360,

    occupations='smearing', smearing='mv', degauss=0.02

/

  &electrons

     diagonalization='david',

     mixing_mode  =  'local-TF',

     mixing_beta = 0.7

   /

   &ions

     ion_dynamics = 'bfgs'

  /

   &cell

     cell_dynamics = 'bfgs',

   /

 ATOMIC_SPECIES

 Mo  95.5     Mo.pw91-n-van.UPF

 S   32.065   S.pw91-van_ak.UPF

K_POINTS {automatic}
  3  3  1 0 0 0
  
CELL_PARAMETERS (angstrom)
   6.443002877095240E+00   0.000000000000000E+00   0.000000000000000E+00
   3.198484880787270E+00   5.644471047899200E+00   0.000000000000000E+00
   2.178158560616600E+00   2.008668637278780E-01   1.666450302150800E+01
  
ATOMIC_POSITIONS (angstrom)
   Mo   3.284501508979630E+00   2.262562788017070E-01   1.356670304520340E+01
   Mo   8.057903672115810E+00   3.061781006206320E+00   1.328918052164970E+01
   Mo   6.453082004086830E+00   2.440531403627210E-01   1.331786576035020E+01
   Mo   4.871747357721630E+00   3.056296691903960E+00   1.335251837738830E+01
   Mo   8.573907961477040E+00   5.581545660144450E+00   3.270976525602210E+00
   Mo   3.747604643103080E+00   2.780494209167530E+00   3.171742425877270E+00
   Mo   5.337619824766130E+00   5.570196113051790E+00   3.209780576083250E+00
   Mo   6.968100823842380E+00   2.779224028375950E+00   3.291908726505970E+00
    S   4.914387912987700E+00   1.228911536544460E+00   1.502389715762070E+01
    S   9.652552478876350E+00   4.008992878201580E+00   1.486894795987030E+01
    S   7.998123914754640E+00   1.230392905568560E+00   1.495143996307190E+01
    S   6.478843365330880E+00   3.918284023137410E+00   1.500211077479140E+01
    S   5.399670460570690E+00   1.810636886851680E+00   1.676744744203230E+00
    S   3.699858783610630E+00   4.656726186168790E+00   1.621255978888040E+00
    S   2.089796710559320E+00   1.805092273875320E+00   1.633857782451830E+00
    S   6.971737957554950E+00   4.624489218019440E+00   1.678309539206470E+00
    S   5.317147285635470E+00   1.838907045517490E+00   4.807400914285740E+00
    S   3.756471843076350E+00   4.624345850922470E+00   4.790676166427780E+00
    S   2.196000164669640E+00   1.829594035643010E+00   4.769372315365290E+00
    S   6.923417306783100E+00   4.682253044383890E+00   4.832004984630820E+00
    S   4.778219468583350E+00   1.146728037277880E+00   1.183732434829100E+01
    S   9.723043178522079E+00   3.998462778031390E+00   1.175750950649150E+01
    S   8.203340512955020E+00   1.101776318786760E+00   1.184672185569630E+01
    S   6.449307917566420E+00   4.127539132098230E+00   1.182950889245520E+01
