 &control

     calculation = 'scf',

     restart_mode='from_scratch',

     tprnfor=.true.

     prefix='MoS2',

     outdir='./tmp',

     max_seconds = 84500

     disk_io = 'none'

     pseudo_dir = '~/pseudo/',

 /

 &system

    ibrav = 0,

    nat =  36
    ntyp = 2

    ecutwfc = 45 , ecutrho = 360,

    occupations='smearing', smearing='mv', degauss=0.02

/

  &electrons

     diagonalization='david',

     mixing_mode  =  'local-TF',

     mixing_beta = 0.7

   /

   &ions

     ion_dynamics = 'bfgs'

  /

   &cell

     cell_dynamics = 'bfgs',

   /

 ATOMIC_SPECIES

 Mo  95.5     Mo.pw91-n-van.UPF

 S   32.065   S.pw91-van_ak.UPF

K_POINTS {automatic}
  3  3  1 0 0 0
  
CELL_PARAMETERS (angstrom)
   6.455702019784758E+00   0.000000000000000E+00   0.000000000000000E+00
  -3.124512061757101E+00   5.620640148854059E+00   0.000000000000000E+00
  -1.474654378536009E+00  -1.324385660123429E+00   1.724078151822667E+01
  
ATOMIC_POSITIONS (angstrom)
   Mo   1.543310483987290E+00   9.800643694170740E-01   5.360838367586610E+00
   Mo  -2.526323825181330E-01   3.681292510123160E+00   5.412326682503720E+00
   Mo   4.640314664682120E+00   8.952132127856290E-01   5.575261747633960E+00
   Mo   2.954715488493810E+00   3.606873934366030E+00   6.474996728896350E+00
   Mo  -7.955030502535070E-01   7.090887330430040E-01   1.150309578796630E+01
   Mo  -2.463265485528170E+00   3.393841572279460E+00   1.123644611435470E+01
   Mo   2.506120376858320E+00   5.596694685456590E-01   1.167361845147440E+01
   Mo   8.477585857545590E-01   3.292212917158050E+00   1.124042275067670E+01
   Mo  -1.777510026901900E+00  -1.406169102487040E+00   1.681993262189300E+01
   Mo  -3.423162140538130E+00   1.332086986673060E+00   1.780303280845200E+01
   Mo   1.349683298544160E+00  -1.451904442912740E+00   1.776839257034730E+01
   Mo   1.889072235962760E-02   1.373717411281090E+00   1.692853147183110E+01
    S  -3.407270301823930E-01   1.611793097386150E+00   1.107991842000550E+00
    S  -1.898611727214310E+00   4.516345792111860E+00   1.448611861578770E+00
    S   2.726088727033670E+00   1.806145937254900E+00   1.432985011544980E+00
    S   1.248136781418910E+00   4.478456783974180E+00   1.162778385357020E+00
    S  -1.731856084672050E-01   5.624461135628160E-01   4.466449725106970E+00
    S  -1.953614555781370E+00   2.879235145310760E+00   4.684067864735230E+00
    S   3.159153011323000E+00   2.280599184756130E-02   4.298532568753060E+00
    S   1.504648418484400E+00   2.994484109157170E+00   4.608224941411480E+00
    S  -5.554950698809979E-01  -7.052488408715650E-02   6.949502416935930E+00
    S  -1.947003466303840E+00   2.579717145380680E+00   7.117486576705670E+00
    S   2.806504235159220E+00  -3.563881250676730E-01   6.638364837674060E+00
    S   1.457185402852820E+00   2.384605600036730E+00   6.960245373487140E+00
    S   2.591957571113860E-01  -5.763538471734780E-01   1.023374918545730E+01
    S  -9.834267340844089E-01   2.209450304815340E+00   1.016875872950540E+01
    S   3.711669076474190E+00  -3.994470224339960E-01   1.049335457372350E+01
    S   2.151225606313130E+00   2.158047852202010E+00   1.035922941934410E+01
    S   7.677459150347919E-01   3.171140564737090E-01   1.266951583132810E+01
    S  -7.168144262113880E-01   3.162513618676570E+00   1.247604034536800E+01
    S   3.992241796606520E+00   9.527620977591270E-01   1.277136650886140E+01
    S   2.427412278948820E+00   3.512787070227220E+00   1.248106589820810E+01
    S  -1.295995224090150E+00   2.755560180062020E-01   1.586263248900630E+01
    S  -3.254341830655710E+00   3.069418664764570E+00   1.626947444340170E+01
    S   1.854500279338220E+00   2.182003165713890E-01   1.638383746095550E+01
    S   1.020302631923460E-01   3.103207163584630E+00   1.593315029632250E+01
