 &control

     calculation = 'scf',

     restart_mode='from_scratch',

     tprnfor=.true.

     prefix='MoS2',

     outdir='./tmp',

     max_seconds = 84500

     disk_io = 'none'

     pseudo_dir = '~/pseudo/',

 /

 &system

    ibrav = 0,

    nat =  36
    ntyp = 2

    ecutwfc = 45 , ecutrho = 360,

    occupations='smearing', smearing='mv', degauss=0.02

/

  &electrons

     diagonalization='david',

     mixing_mode  =  'local-TF',

     mixing_beta = 0.7

   /

   &ions

     ion_dynamics = 'bfgs'

  /

   &cell

     cell_dynamics = 'bfgs',

   /

 ATOMIC_SPECIES

 Mo  95.5     Mo.pw91-n-van.UPF

 S   32.065   S.pw91-van_ak.UPF

K_POINTS {automatic}
  3  3  1 0 0 0
  
CELL_PARAMETERS (angstrom)
   6.460247940836553E+00   0.000000000000000E+00   0.000000000000000E+00
  -3.315191999300299E+00   5.794347491537440E+00   0.000000000000000E+00
  -1.777133441893280E+00  -6.673894364376857E-01   1.712145209888201E+01
  
ATOMIC_POSITIONS (angstrom)
   Mo   1.250533348169090E+00   1.192046876889180E+00   5.404578124123110E+00
   Mo  -3.209257913247220E-01   4.119436972590600E+00   5.513990439404520E+00
   Mo   4.483941195240560E+00   1.171550973873000E+00   5.648367466375220E+00
   Mo   2.812253166709000E+00   3.828383400735140E+00   6.216435512547540E+00
   Mo  -1.113953199030480E+00   8.366717915603230E-01   1.150356585998950E+01
   Mo  -2.735632872912730E+00   3.806384265118990E+00   1.122262130744090E+01
   Mo   2.105183217948820E+00   9.924327417896860E-01   1.158949709418490E+01
   Mo   4.129690095241100E-01   3.796124425725850E+00   1.104634140473320E+01
   Mo  -2.013050231371760E+00  -9.022989066032900E-01   1.676714648787040E+01
   Mo  -3.952377686420590E+00   2.165311801801740E+00   1.766815973222470E+01
   Mo   1.008894197485970E+00  -7.407472809057279E-01   1.764532028437920E+01
   Mo  -5.256344839708720E-01   2.032298664251090E+00   1.676748084031610E+01
    S  -5.741547784311520E-01   1.801894524683870E+00   9.755353919582040E-01
    S  -2.232601079225680E+00   4.861895404357570E+00   1.401206570515530E+00
    S   2.683528889590740E+00   1.874243472542880E+00   1.477308608030710E+00
    S   1.010042018193400E+00   4.633226631005340E+00   1.015892168994720E+00
    S  -3.643555195475380E-01   9.432184259807610E-01   4.391707383654890E+00
    S  -2.005242399888560E+00   3.410746097429950E+00   4.707416295428540E+00
    S   2.949814916595740E+00   3.744062046884620E-01   4.371969390271860E+00
    S   1.492959815883340E+00   3.343192313942960E+00   4.603440940533850E+00
    S  -5.641987000048090E-01  -1.486270096844550E-02   6.726192573279960E+00
    S  -2.149497356139140E+00   2.722607479211980E+00   7.044643133956520E+00
    S   2.720035418882450E+00  -4.746815288406140E-02   6.702078784940110E+00
    S   1.030139003285390E+00   2.917428800024810E+00   6.896222488239390E+00
    S   3.190497095825360E-01  -2.450202702878740E-01   1.034242397081730E+01
    S  -1.142927632093610E+00   2.571542597344220E+00   1.032380413753700E+01
    S   3.563586143681000E+00  -1.505040265498590E-01   1.034314197802090E+01
    S   2.143218704884190E+00   2.507840767836340E+00   1.025976324894280E+01
    S   3.766580616303390E-01   1.506457986388250E+00   1.262260917798350E+01
    S  -1.129389463502670E+00   4.484182794829930E+00   1.231499561972200E+01
    S   3.707764016356000E+00   1.551122869990460E+00   1.258911590745080E+01
    S   1.996835409175210E+00   4.251704144865070E+00   1.224531451685260E+01
    S  -1.509823159260740E+00   7.043249223564990E-01   1.568268558523450E+01
    S  -3.407936279970370E+00   3.873621013799020E+00   1.624084180646390E+01
    S   1.370664746768920E+00   1.083709797121070E+00   1.626567524048540E+01
    S   4.824994778131990E-02   3.653227117222280E+00   1.570017231775430E+01
